Generated-Hybrid-Cuckoo-Search
3.22
        4.0000000000         0.0000000000         0.0000000000
        0.0000000000         4.0000000000         0.0000000000
        0.0000000000         0.0000000000         4.0000000000
    V   Nb   Mo   Ta    W
   19   52   19   19   19
Direct
     0.000000000         0.250000000         0.000000000
     0.000000000         0.250000000         0.250000000
     0.750000000         0.500000000         0.250000000
     0.000000000         0.750000000         0.250000000
     0.500000000         0.750000000         0.250000000
     0.500000000         0.000000000         0.500000000
     0.000000000         0.500000000         0.500000000
     0.250000000         0.500000000         0.500000000
     0.500000000         0.500000000         0.750000000
     0.500000000         0.750000000         0.750000000
     0.125000000         0.875000000         0.125000000
     0.125000000         0.125000000         0.375000000
     0.625000000         0.125000000         0.375000000
     0.125000000         0.625000000         0.375000000
     0.125000000         0.875000000         0.375000000
     0.375000000         0.875000000         0.375000000
     0.125000000         0.125000000         0.625000000
     0.875000000         0.625000000         0.625000000
     0.375000000         0.375000000         0.875000000
     0.000000000         0.000000000         0.000000000
     0.750000000         0.250000000         0.000000000
     0.750000000         0.500000000         0.000000000
     0.000000000         0.750000000         0.000000000
     0.250000000         0.750000000         0.000000000
     0.500000000         0.750000000         0.000000000
     0.000000000         0.000000000         0.250000000
     0.750000000         0.000000000         0.250000000
     0.250000000         0.250000000         0.250000000
     0.250000000         0.500000000         0.250000000
     0.250000000         0.750000000         0.250000000
     0.000000000         0.000000000         0.500000000
     0.250000000         0.000000000         0.500000000
     0.000000000         0.250000000         0.500000000
     0.750000000         0.250000000         0.500000000
     0.500000000         0.500000000         0.500000000
     0.750000000         0.500000000         0.500000000
     0.000000000         0.750000000         0.500000000
     0.250000000         0.000000000         0.750000000
     0.750000000         0.000000000         0.750000000
     0.250000000         0.250000000         0.750000000
     0.500000000         0.250000000         0.750000000
     0.750000000         0.250000000         0.750000000
     0.000000000         0.750000000         0.750000000
     0.250000000         0.750000000         0.750000000
     0.125000000         0.125000000         0.125000000
     0.625000000         0.125000000         0.125000000
     0.875000000         0.125000000         0.125000000
     0.125000000         0.375000000         0.125000000
     0.375000000         0.375000000         0.125000000
     0.375000000         0.625000000         0.125000000
     0.875000000         0.625000000         0.125000000
     0.375000000         0.875000000         0.125000000
     0.625000000         0.875000000         0.125000000
     0.375000000         0.125000000         0.375000000
     0.875000000         0.125000000         0.375000000
     0.125000000         0.375000000         0.375000000
     0.375000000         0.375000000         0.375000000
     0.875000000         0.375000000         0.375000000
     0.875000000         0.125000000         0.625000000
     0.125000000         0.375000000         0.625000000
     0.875000000         0.375000000         0.625000000
     0.125000000         0.625000000         0.625000000
     0.375000000         0.125000000         0.875000000
     0.625000000         0.125000000         0.875000000
     0.125000000         0.375000000         0.875000000
     0.625000000         0.375000000         0.875000000
     0.125000000         0.625000000         0.875000000
     0.375000000         0.625000000         0.875000000
     0.125000000         0.875000000         0.875000000
     0.625000000         0.875000000         0.875000000
     0.875000000         0.875000000         0.875000000
     0.500000000         0.000000000         0.000000000
     0.250000000         0.000000000         0.250000000
     0.500000000         0.000000000         0.250000000
     0.750000000         0.250000000         0.250000000
     0.500000000         0.500000000         0.250000000
     0.750000000         0.000000000         0.500000000
     0.750000000         0.750000000         0.500000000
     0.500000000         0.000000000         0.750000000
     0.000000000         0.500000000         0.750000000
     0.625000000         0.375000000         0.125000000
     0.875000000         0.375000000         0.125000000
     0.625000000         0.625000000         0.125000000
     0.625000000         0.375000000         0.375000000
     0.375000000         0.625000000         0.375000000
     0.875000000         0.875000000         0.375000000
     0.375000000         0.125000000         0.625000000
     0.125000000         0.875000000         0.625000000
     0.125000000         0.125000000         0.875000000
     0.875000000         0.375000000         0.875000000
     0.250000000         0.000000000         0.000000000
     0.250000000         0.250000000         0.000000000
     0.500000000         0.250000000         0.000000000
     0.000000000         0.500000000         0.000000000
     0.500000000         0.500000000         0.000000000
     0.750000000         0.750000000         0.000000000
     0.500000000         0.250000000         0.250000000
     0.250000000         0.750000000         0.500000000
     0.500000000         0.750000000         0.500000000
     0.000000000         0.000000000         0.750000000
     0.250000000         0.500000000         0.750000000
     0.750000000         0.750000000         0.750000000
     0.125000000         0.625000000         0.125000000
     0.625000000         0.875000000         0.375000000
     0.375000000         0.375000000         0.625000000
     0.375000000         0.625000000         0.625000000
     0.375000000         0.875000000         0.625000000
     0.875000000         0.625000000         0.875000000
     0.375000000         0.875000000         0.875000000
     0.750000000         0.000000000         0.000000000
     0.250000000         0.500000000         0.000000000
     0.000000000         0.500000000         0.250000000
     0.750000000         0.750000000         0.250000000
     0.250000000         0.250000000         0.500000000
     0.500000000         0.250000000         0.500000000
     0.000000000         0.250000000         0.750000000
     0.750000000         0.500000000         0.750000000
     0.375000000         0.125000000         0.125000000
     0.875000000         0.875000000         0.125000000
     0.625000000         0.625000000         0.375000000
     0.875000000         0.625000000         0.375000000
     0.625000000         0.125000000         0.625000000
     0.625000000         0.375000000         0.625000000
     0.625000000         0.625000000         0.625000000
     0.625000000         0.875000000         0.625000000
     0.875000000         0.875000000         0.625000000
     0.875000000         0.125000000         0.875000000
     0.625000000         0.625000000         0.875000000
