Generated-Hybrid-Cuckoo-Search
1.0
       13.0484399796         0.0000000000         0.0000000000
        0.0000000000        13.0484399796         0.0000000000
        0.0000000000         0.0000000000        13.0484399796
   Nb   Mo   Ta
   43   43   42
Direct
     0.000000000         0.000000000         0.000000000
     0.750000000         0.000000000         0.000000000
     0.250000000         0.250000000         0.000000000
     0.750000000         0.500000000         0.000000000
     0.000000000         0.250000000         0.250000000
     0.500000000         0.250000000         0.250000000
     0.000000000         0.500000000         0.250000000
     0.250000000         0.500000000         0.250000000
     0.500000000         0.500000000         0.250000000
     0.250000000         0.750000000         0.250000000
     0.750000000         0.000000000         0.500000000
     0.250000000         0.250000000         0.500000000
     0.250000000         0.500000000         0.500000000
     0.750000000         0.500000000         0.500000000
     0.500000000         0.750000000         0.500000000
     0.500000000         0.000000000         0.750000000
     0.000000000         0.250000000         0.750000000
     0.000000000         0.500000000         0.750000000
     0.750000000         0.500000000         0.750000000
     0.750000000         0.750000000         0.750000000
     0.375000000         0.625000000         0.125000000
     0.125000000         0.875000000         0.125000000
     0.375000000         0.875000000         0.125000000
     0.875000000         0.875000000         0.125000000
     0.625000000         0.125000000         0.375000000
     0.875000000         0.125000000         0.375000000
     0.875000000         0.375000000         0.375000000
     0.125000000         0.625000000         0.375000000
     0.375000000         0.625000000         0.375000000
     0.375000000         0.875000000         0.375000000
     0.875000000         0.875000000         0.375000000
     0.875000000         0.125000000         0.625000000
     0.125000000         0.375000000         0.625000000
     0.375000000         0.375000000         0.625000000
     0.875000000         0.375000000         0.625000000
     0.375000000         0.625000000         0.625000000
     0.625000000         0.625000000         0.625000000
     0.375000000         0.875000000         0.625000000
     0.125000000         0.125000000         0.875000000
     0.875000000         0.125000000         0.875000000
     0.875000000         0.375000000         0.875000000
     0.375000000         0.625000000         0.875000000
     0.375000000         0.875000000         0.875000000
     0.250000000         0.000000000         0.000000000
     0.000000000         0.250000000         0.000000000
     0.000000000         0.500000000         0.000000000
     0.250000000         0.500000000         0.000000000
     0.500000000         0.750000000         0.000000000
     0.250000000         0.000000000         0.250000000
     0.750000000         0.000000000         0.250000000
     0.250000000         0.250000000         0.250000000
     0.750000000         0.500000000         0.250000000
     0.000000000         0.750000000         0.250000000
     0.500000000         0.750000000         0.250000000
     0.750000000         0.750000000         0.250000000
     0.500000000         0.000000000         0.500000000
     0.500000000         0.250000000         0.500000000
     0.500000000         0.500000000         0.500000000
     0.000000000         0.750000000         0.500000000
     0.000000000         0.000000000         0.750000000
     0.250000000         0.250000000         0.750000000
     0.250000000         0.500000000         0.750000000
     0.250000000         0.750000000         0.750000000
     0.125000000         0.125000000         0.125000000
     0.375000000         0.125000000         0.125000000
     0.625000000         0.125000000         0.125000000
     0.875000000         0.125000000         0.125000000
     0.125000000         0.375000000         0.125000000
     0.375000000         0.375000000         0.125000000
     0.875000000         0.625000000         0.125000000
     0.625000000         0.875000000         0.125000000
     0.375000000         0.125000000         0.375000000
     0.375000000         0.375000000         0.375000000
     0.625000000         0.375000000         0.375000000
     0.625000000         0.625000000         0.375000000
     0.875000000         0.625000000         0.375000000
     0.125000000         0.875000000         0.375000000
     0.125000000         0.125000000         0.625000000
     0.625000000         0.375000000         0.625000000
     0.875000000         0.625000000         0.625000000
     0.875000000         0.875000000         0.625000000
     0.375000000         0.125000000         0.875000000
     0.625000000         0.125000000         0.875000000
     0.375000000         0.375000000         0.875000000
     0.625000000         0.375000000         0.875000000
     0.875000000         0.625000000         0.875000000
     0.500000000         0.000000000         0.000000000
     0.500000000         0.250000000         0.000000000
     0.750000000         0.250000000         0.000000000
     0.500000000         0.500000000         0.000000000
     0.000000000         0.750000000         0.000000000
     0.250000000         0.750000000         0.000000000
     0.750000000         0.750000000         0.000000000
     0.000000000         0.000000000         0.250000000
     0.500000000         0.000000000         0.250000000
     0.750000000         0.250000000         0.250000000
     0.000000000         0.000000000         0.500000000
     0.250000000         0.000000000         0.500000000
     0.000000000         0.250000000         0.500000000
     0.750000000         0.250000000         0.500000000
     0.000000000         0.500000000         0.500000000
     0.250000000         0.750000000         0.500000000
     0.750000000         0.750000000         0.500000000
     0.250000000         0.000000000         0.750000000
     0.750000000         0.000000000         0.750000000
     0.500000000         0.250000000         0.750000000
     0.750000000         0.250000000         0.750000000
     0.500000000         0.500000000         0.750000000
     0.000000000         0.750000000         0.750000000
     0.500000000         0.750000000         0.750000000
     0.625000000         0.375000000         0.125000000
     0.875000000         0.375000000         0.125000000
     0.125000000         0.625000000         0.125000000
     0.625000000         0.625000000         0.125000000
     0.125000000         0.125000000         0.375000000
     0.125000000         0.375000000         0.375000000
     0.625000000         0.875000000         0.375000000
     0.375000000         0.125000000         0.625000000
     0.625000000         0.125000000         0.625000000
     0.125000000         0.625000000         0.625000000
     0.125000000         0.875000000         0.625000000
     0.625000000         0.875000000         0.625000000
     0.125000000         0.375000000         0.875000000
     0.125000000         0.625000000         0.875000000
     0.625000000         0.625000000         0.875000000
     0.125000000         0.875000000         0.875000000
     0.625000000         0.875000000         0.875000000
     0.875000000         0.875000000         0.875000000
