Generated-Hybrid-Cuckoo-Search-Fig6     
1.0
       12.9439048767         0.0000000000         0.0000000000
        0.0124797847        12.9396054168         0.0000000000
       -0.0280651256         0.0078374920        12.9367261785
   Ta   Nb   Mo    W
   32   32   32   32
Direct
     0.000000000         0.000000000         0.000000000
     0.500000000         0.250000000         0.000000000
     0.250000000         0.750000000         0.000000000
     0.750000000         0.750000000         0.000000000
     0.000000000         0.000000000         0.250000000
     0.250000000         0.000000000         0.250000000
     0.750000000         0.000000000         0.250000000
     0.250000000         0.250000000         0.250000000
     0.000000000         0.750000000         0.250000000
     0.000000000         0.000000000         0.500000000
     0.250000000         0.000000000         0.500000000
     0.750000000         0.000000000         0.500000000
     0.500000000         0.500000000         0.500000000
     0.250000000         0.750000000         0.500000000
     0.500000000         0.000000000         0.750000000
     0.750000000         0.250000000         0.750000000
     0.750000000         0.500000000         0.750000000
     0.250000000         0.750000000         0.750000000
     0.625000000         0.125000000         0.125000000
     0.875000000         0.125000000         0.125000000
     0.625000000         0.625000000         0.125000000
     0.625000000         0.875000000         0.125000000
     0.875000000         0.875000000         0.125000000
     0.125000000         0.125000000         0.375000000
     0.125000000         0.375000000         0.375000000
     0.125000000         0.125000000         0.625000000
     0.875000000         0.375000000         0.625000000
     0.875000000         0.625000000         0.625000000
     0.375000000         0.875000000         0.625000000
     0.125000000         0.375000000         0.875000000
     0.125000000         0.625000000         0.875000000
     0.875000000         0.875000000         0.875000000
     0.500000000         0.000000000         0.000000000
     0.750000000         0.250000000         0.000000000
     0.000000000         0.500000000         0.000000000
     0.250000000         0.500000000         0.000000000
     0.000000000         0.750000000         0.000000000
     0.500000000         0.750000000         0.000000000
     0.250000000         0.500000000         0.250000000
     0.500000000         0.000000000         0.500000000
     0.250000000         0.250000000         0.500000000
     0.750000000         0.250000000         0.500000000
     0.000000000         0.750000000         0.500000000
     0.500000000         0.750000000         0.500000000
     0.750000000         0.000000000         0.750000000
     0.500000000         0.250000000         0.750000000
     0.000000000         0.750000000         0.750000000
     0.500000000         0.750000000         0.750000000
     0.750000000         0.750000000         0.750000000
     0.375000000         0.125000000         0.125000000
     0.375000000         0.375000000         0.125000000
     0.875000000         0.625000000         0.125000000
     0.375000000         0.875000000         0.125000000
     0.625000000         0.375000000         0.375000000
     0.625000000         0.625000000         0.375000000
     0.375000000         0.875000000         0.375000000
     0.875000000         0.875000000         0.375000000
     0.625000000         0.125000000         0.625000000
     0.875000000         0.125000000         0.625000000
     0.375000000         0.125000000         0.875000000
     0.625000000         0.125000000         0.875000000
     0.375000000         0.375000000         0.875000000
     0.625000000         0.625000000         0.875000000
     0.375000000         0.875000000         0.875000000
     0.750000000         0.000000000         0.000000000
     0.000000000         0.250000000         0.000000000
     0.500000000         0.500000000         0.000000000
     0.500000000         0.000000000         0.250000000
     0.500000000         0.250000000         0.250000000
     0.500000000         0.500000000         0.250000000
     0.250000000         0.750000000         0.250000000
     0.500000000         0.750000000         0.250000000
     0.000000000         0.500000000         0.500000000
     0.250000000         0.500000000         0.500000000
     0.750000000         0.500000000         0.500000000
     0.250000000         0.000000000         0.750000000
     0.000000000         0.500000000         0.750000000
     0.500000000         0.500000000         0.750000000
     0.625000000         0.375000000         0.125000000
     0.875000000         0.375000000         0.125000000
     0.125000000         0.625000000         0.125000000
     0.875000000         0.125000000         0.375000000
     0.375000000         0.625000000         0.375000000
     0.875000000         0.625000000         0.375000000
     0.625000000         0.875000000         0.375000000
     0.375000000         0.125000000         0.625000000
     0.375000000         0.375000000         0.625000000
     0.625000000         0.375000000         0.625000000
     0.125000000         0.625000000         0.625000000
     0.375000000         0.625000000         0.625000000
     0.625000000         0.625000000         0.625000000
     0.125000000         0.875000000         0.625000000
     0.875000000         0.375000000         0.875000000
     0.375000000         0.625000000         0.875000000
     0.875000000         0.625000000         0.875000000
     0.125000000         0.875000000         0.875000000
     0.250000000         0.000000000         0.000000000
     0.250000000         0.250000000         0.000000000
     0.750000000         0.500000000         0.000000000
     0.000000000         0.250000000         0.250000000
     0.750000000         0.250000000         0.250000000
     0.000000000         0.500000000         0.250000000
     0.750000000         0.500000000         0.250000000
     0.750000000         0.750000000         0.250000000
     0.000000000         0.250000000         0.500000000
     0.500000000         0.250000000         0.500000000
     0.750000000         0.750000000         0.500000000
     0.000000000         0.000000000         0.750000000
     0.000000000         0.250000000         0.750000000
     0.250000000         0.250000000         0.750000000
     0.250000000         0.500000000         0.750000000
     0.125000000         0.125000000         0.125000000
     0.125000000         0.375000000         0.125000000
     0.375000000         0.625000000         0.125000000
     0.125000000         0.875000000         0.125000000
     0.375000000         0.125000000         0.375000000
     0.625000000         0.125000000         0.375000000
     0.375000000         0.375000000         0.375000000
     0.875000000         0.375000000         0.375000000
     0.125000000         0.625000000         0.375000000
     0.125000000         0.875000000         0.375000000
     0.125000000         0.375000000         0.625000000
     0.625000000         0.875000000         0.625000000
     0.875000000         0.875000000         0.625000000
     0.125000000         0.125000000         0.875000000
     0.875000000         0.125000000         0.875000000
     0.625000000         0.375000000         0.875000000
     0.625000000         0.875000000         0.875000000
