ITEM: TIMESTEP
0
ITEM: NUMBER OF ATOMS
1
ITEM: BOX BOUNDS pp pp pp
0 64.80
0 64.80
0 64.80
ITEM: ATOMS id type x y z
3497 2 0.00 0.00 0.00
ITEM: TIMESTEP
1
ITEM: NUMBER OF ATOMS
1
ITEM: BOX BOUNDS pp pp pp
0 64.80
0 64.80
0 64.80
ITEM: ATOMS id type x y z
3497 2 1.62 -1.62 -1.62
ITEM: TIMESTEP
2
ITEM: NUMBER OF ATOMS
1
ITEM: BOX BOUNDS pp pp pp
0 64.80
0 64.80
0 64.80
ITEM: ATOMS id type x y z
3497 2 0.00 -3.24 -0.00
ITEM: TIMESTEP
3
ITEM: NUMBER OF ATOMS
1
ITEM: BOX BOUNDS pp pp pp
0 64.80
0 64.80
0 64.80
ITEM: ATOMS id type x y z
3497 2 -1.62 -4.86 -1.62
ITEM: TIMESTEP
4
ITEM: NUMBER OF ATOMS
1
ITEM: BOX BOUNDS pp pp pp
0 64.80
0 64.80
0 64.80
ITEM: ATOMS id type x y z
3497 2 -0.00 -6.48 -0.00
ITEM: TIMESTEP
5
ITEM: NUMBER OF ATOMS
1
ITEM: BOX BOUNDS pp pp pp
0 64.80
0 64.80
0 64.80
ITEM: ATOMS id type x y z
3497 2 -1.62 -8.10 1.62
ITEM: TIMESTEP
6
ITEM: NUMBER OF ATOMS
1
ITEM: BOX BOUNDS pp pp pp
0 64.80
0 64.80
0 64.80
ITEM: ATOMS id type x y z
3497 2 -0.00 -6.48 3.24
ITEM: TIMESTEP
7
ITEM: NUMBER OF ATOMS
1
ITEM: BOX BOUNDS pp pp pp
0 64.80
0 64.80
0 64.80
ITEM: ATOMS id type x y z
3497 2 -1.62 -4.86 1.62
ITEM: TIMESTEP
8
ITEM: NUMBER OF ATOMS
1
ITEM: BOX BOUNDS pp pp pp
0 64.80
0 64.80
0 64.80
ITEM: ATOMS id type x y z
3497 2 -0.00 -3.24 0.00
ITEM: TIMESTEP
9
ITEM: NUMBER OF ATOMS
1
ITEM: BOX BOUNDS pp pp pp
0 64.80
0 64.80
0 64.80
ITEM: ATOMS id type x y z
3497 2 1.62 -1.62 -1.62
ITEM: TIMESTEP
10
ITEM: NUMBER OF ATOMS
1
ITEM: BOX BOUNDS pp pp pp
0 64.80
0 64.80
0 64.80
ITEM: ATOMS id type x y z
3497 2 0.00 -3.24 -0.00
ITEM: TIMESTEP
11
ITEM: NUMBER OF ATOMS
1
ITEM: BOX BOUNDS pp pp pp
0 64.80
0 64.80
0 64.80
ITEM: ATOMS id type x y z
3497 2 -1.62 -4.86 -1.62
ITEM: TIMESTEP
12
ITEM: NUMBER OF ATOMS
1
ITEM: BOX BOUNDS pp pp pp
0 64.80
0 64.80
0 64.80
ITEM: ATOMS id type x y z
3497 2 -0.00 -3.24 -3.24
ITEM: TIMESTEP
13
ITEM: NUMBER OF ATOMS
1
ITEM: BOX BOUNDS pp pp pp
0 64.80
0 64.80
0 64.80
ITEM: ATOMS id type x y z
3497 2 1.62 -4.86 -1.62
ITEM: TIMESTEP
14
ITEM: NUMBER OF ATOMS
1
ITEM: BOX BOUNDS pp pp pp
0 64.80
0 64.80
0 64.80
ITEM: ATOMS id type x y z
3497 2 3.24 -6.48 -3.24
ITEM: TIMESTEP
15
ITEM: NUMBER OF ATOMS
1
ITEM: BOX BOUNDS pp pp pp
0 64.80
0 64.80
0 64.80
ITEM: ATOMS id type x y z
3497 2 1.62 -8.10 -4.86
ITEM: TIMESTEP
16
ITEM: NUMBER OF ATOMS
1
ITEM: BOX BOUNDS pp pp pp
0 64.80
0 64.80
0 64.80
ITEM: ATOMS id type x y z
3497 2 0.00 -9.72 -6.48
ITEM: TIMESTEP
17
ITEM: NUMBER OF ATOMS
1
ITEM: BOX BOUNDS pp pp pp
0 64.80
0 64.80
0 64.80
ITEM: ATOMS id type x y z
3497 2 1.62 -8.10 -4.86
ITEM: TIMESTEP
18
ITEM: NUMBER OF ATOMS
1
ITEM: BOX BOUNDS pp pp pp
0 64.80
0 64.80
0 64.80
ITEM: ATOMS id type x y z
3497 2 0.00 -9.72 -6.48
ITEM: TIMESTEP
19
ITEM: NUMBER OF ATOMS
1
ITEM: BOX BOUNDS pp pp pp
0 64.80
0 64.80
0 64.80
ITEM: ATOMS id type x y z
3497 2 1.62 -8.10 -4.86
ITEM: TIMESTEP
20
ITEM: NUMBER OF ATOMS
1
ITEM: BOX BOUNDS pp pp pp
0 64.80
0 64.80
0 64.80
ITEM: ATOMS id type x y z
3497 2 0.00 -9.72 -6.48
ITEM: TIMESTEP
21
ITEM: NUMBER OF ATOMS
1
ITEM: BOX BOUNDS pp pp pp
0 64.80
0 64.80
0 64.80
ITEM: ATOMS id type x y z
3497 2 1.62 -8.10 -4.86
ITEM: TIMESTEP
22
ITEM: NUMBER OF ATOMS
1
ITEM: BOX BOUNDS pp pp pp
0 64.80
0 64.80
0 64.80
ITEM: ATOMS id type x y z
3497 2 0.00 -9.72 -6.48
ITEM: TIMESTEP
23
ITEM: NUMBER OF ATOMS
1
ITEM: BOX BOUNDS pp pp pp
0 64.80
0 64.80
0 64.80
ITEM: ATOMS id type x y z
3497 2 1.62 -8.10 -4.86
ITEM: TIMESTEP
24
ITEM: NUMBER OF ATOMS
1
ITEM: BOX BOUNDS pp pp pp
0 64.80
0 64.80
0 64.80
ITEM: ATOMS id type x y z
3497 2 3.24 -6.48 -3.24
ITEM: TIMESTEP
25
ITEM: NUMBER OF ATOMS
1
ITEM: BOX BOUNDS pp pp pp
0 64.80
0 64.80
0 64.80
ITEM: ATOMS id type x y z
3497 2 1.62 -4.86 -1.62
ITEM: TIMESTEP
26
ITEM: NUMBER OF ATOMS
1
ITEM: BOX BOUNDS pp pp pp
0 64.80
0 64.80
0 64.80
ITEM: ATOMS id type x y z
3497 2 0.00 -3.24 -3.24
ITEM: TIMESTEP
27
ITEM: NUMBER OF ATOMS
1
ITEM: BOX BOUNDS pp pp pp
0 64.80
0 64.80
0 64.80
ITEM: ATOMS id type x y z
3497 2 -1.62 -1.62 -4.86
ITEM: TIMESTEP
28
ITEM: NUMBER OF ATOMS
1
ITEM: BOX BOUNDS pp pp pp
0 64.80
0 64.80
0 64.80
ITEM: ATOMS id type x y z
3497 2 -0.00 -3.24 -3.24
ITEM: TIMESTEP
29
ITEM: NUMBER OF ATOMS
1
ITEM: BOX BOUNDS pp pp pp
0 64.80
0 64.80
0 64.80
ITEM: ATOMS id type x y z
3497 2 -1.62 -4.86 -1.62
ITEM: TIMESTEP
30
ITEM: NUMBER OF ATOMS
1
ITEM: BOX BOUNDS pp pp pp
0 64.80
0 64.80
0 64.80
ITEM: ATOMS id type x y z
3497 2 -0.00 -3.24 -0.00
ITEM: TIMESTEP
31
ITEM: NUMBER OF ATOMS
1
ITEM: BOX BOUNDS pp pp pp
0 64.80
0 64.80
0 64.80
ITEM: ATOMS id type x y z
3497 2 -1.62 -1.62 -1.62
ITEM: TIMESTEP
32
ITEM: NUMBER OF ATOMS
1
ITEM: BOX BOUNDS pp pp pp
0 64.80
0 64.80
0 64.80
ITEM: ATOMS id type x y z
3497 2 -3.24 -3.24 -0.00
ITEM: TIMESTEP
33
ITEM: NUMBER OF ATOMS
1
ITEM: BOX BOUNDS pp pp pp
0 64.80
0 64.80
0 64.80
ITEM: ATOMS id type x y z
3497 2 -4.86 -4.86 -1.62
ITEM: TIMESTEP
34
ITEM: NUMBER OF ATOMS
1
ITEM: BOX BOUNDS pp pp pp
0 64.80
0 64.80
0 64.80
ITEM: ATOMS id type x y z
3497 2 -6.48 -3.24 -0.00
ITEM: TIMESTEP
35
ITEM: NUMBER OF ATOMS
1
ITEM: BOX BOUNDS pp pp pp
0 64.80
0 64.80
0 64.80
ITEM: ATOMS id type x y z
3497 2 -8.10 -1.62 1.62
ITEM: TIMESTEP
36
ITEM: NUMBER OF ATOMS
1
ITEM: BOX BOUNDS pp pp pp
0 64.80
0 64.80
0 64.80
ITEM: ATOMS id type x y z
3497 2 -6.48 -0.00 3.24
ITEM: TIMESTEP
37
ITEM: NUMBER OF ATOMS
1
ITEM: BOX BOUNDS pp pp pp
0 64.80
0 64.80
0 64.80
ITEM: ATOMS id type x y z
3497 2 -4.86 1.62 4.86
ITEM: TIMESTEP
38
ITEM: NUMBER OF ATOMS
1
ITEM: BOX BOUNDS pp pp pp
0 64.80
0 64.80
0 64.80
ITEM: ATOMS id type x y z
3497 2 -6.48 -0.00 3.24
ITEM: TIMESTEP
39
ITEM: NUMBER OF ATOMS
1
ITEM: BOX BOUNDS pp pp pp
0 64.80
0 64.80
0 64.80
ITEM: ATOMS id type x y z
3497 2 -8.10 -1.62 4.86
ITEM: TIMESTEP
40
ITEM: NUMBER OF ATOMS
1
ITEM: BOX BOUNDS pp pp pp
0 64.80
0 64.80
0 64.80
ITEM: ATOMS id type x y z
3497 2 -6.48 -0.00 6.48
ITEM: TIMESTEP
41
ITEM: NUMBER OF ATOMS
1
ITEM: BOX BOUNDS pp pp pp
0 64.80
0 64.80
0 64.80
ITEM: ATOMS id type x y z
3497 2 -4.86 1.62 4.86
ITEM: TIMESTEP
42
ITEM: NUMBER OF ATOMS
1
ITEM: BOX BOUNDS pp pp pp
0 64.80
0 64.80
0 64.80
ITEM: ATOMS id type x y z
3497 2 -6.48 -0.00 3.24
ITEM: TIMESTEP
43
ITEM: NUMBER OF ATOMS
1
ITEM: BOX BOUNDS pp pp pp
0 64.80
0 64.80
0 64.80
ITEM: ATOMS id type x y z
3497 2 -4.86 1.62 4.86
ITEM: TIMESTEP
44
ITEM: NUMBER OF ATOMS
1
ITEM: BOX BOUNDS pp pp pp
0 64.80
0 64.80
0 64.80
ITEM: ATOMS id type x y z
3497 2 -6.48 3.24 3.24
ITEM: TIMESTEP
45
ITEM: NUMBER OF ATOMS
1
ITEM: BOX BOUNDS pp pp pp
0 64.80
0 64.80
0 64.80
ITEM: ATOMS id type x y z
3497 2 -4.86 4.86 4.86
ITEM: TIMESTEP
46
ITEM: NUMBER OF ATOMS
1
ITEM: BOX BOUNDS pp pp pp
0 64.80
0 64.80
0 64.80
ITEM: ATOMS id type x y z
3497 2 -6.48 6.48 3.24
ITEM: TIMESTEP
47
ITEM: NUMBER OF ATOMS
1
ITEM: BOX BOUNDS pp pp pp
0 64.80
0 64.80
0 64.80
ITEM: ATOMS id type x y z
3497 2 -8.10 8.10 1.62
ITEM: TIMESTEP
48
ITEM: NUMBER OF ATOMS
1
ITEM: BOX BOUNDS pp pp pp
0 64.80
0 64.80
0 64.80
ITEM: ATOMS id type x y z
3497 2 -6.48 6.48 3.24
ITEM: TIMESTEP
49
ITEM: NUMBER OF ATOMS
1
ITEM: BOX BOUNDS pp pp pp
0 64.80
0 64.80
0 64.80
ITEM: ATOMS id type x y z
3497 2 -4.86 4.86 1.62
ITEM: TIMESTEP
50
ITEM: NUMBER OF ATOMS
1
ITEM: BOX BOUNDS pp pp pp
0 64.80
0 64.80
0 64.80
ITEM: ATOMS id type x y z
3497 2 -3.24 6.48 3.24
ITEM: TIMESTEP
51
ITEM: NUMBER OF ATOMS
1
ITEM: BOX BOUNDS pp pp pp
0 64.80
0 64.80
0 64.80
ITEM: ATOMS id type x y z
3497 2 -1.62 8.10 1.62
ITEM: TIMESTEP
52
ITEM: NUMBER OF ATOMS
1
ITEM: BOX BOUNDS pp pp pp
0 64.80
0 64.80
0 64.80
ITEM: ATOMS id type x y z
3497 2 -3.24 6.48 3.24
ITEM: TIMESTEP
53
ITEM: NUMBER OF ATOMS
1
ITEM: BOX BOUNDS pp pp pp
0 64.80
0 64.80
0 64.80
ITEM: ATOMS id type x y z
3497 2 -1.62 8.10 1.62
ITEM: TIMESTEP
54
ITEM: NUMBER OF ATOMS
1
ITEM: BOX BOUNDS pp pp pp
0 64.80
0 64.80
0 64.80
ITEM: ATOMS id type x y z
3497 2 -3.24 6.48 3.24
ITEM: TIMESTEP
55
ITEM: NUMBER OF ATOMS
1
ITEM: BOX BOUNDS pp pp pp
0 64.80
0 64.80
0 64.80
ITEM: ATOMS id type x y z
3497 2 -1.62 8.10 1.62
ITEM: TIMESTEP
56
ITEM: NUMBER OF ATOMS
1
ITEM: BOX BOUNDS pp pp pp
0 64.80
0 64.80
0 64.80
ITEM: ATOMS id type x y z
3497 2 -0.00 9.72 3.24
ITEM: TIMESTEP
57
ITEM: NUMBER OF ATOMS
1
ITEM: BOX BOUNDS pp pp pp
0 64.80
0 64.80
0 64.80
ITEM: ATOMS id type x y z
3497 2 -1.62 8.10 1.62
ITEM: TIMESTEP
58
ITEM: NUMBER OF ATOMS
1
ITEM: BOX BOUNDS pp pp pp
0 64.80
0 64.80
0 64.80
ITEM: ATOMS id type x y z
3497 2 -0.00 9.72 3.24
ITEM: TIMESTEP
59
ITEM: NUMBER OF ATOMS
1
ITEM: BOX BOUNDS pp pp pp
0 64.80
0 64.80
0 64.80
ITEM: ATOMS id type x y z
3497 2 1.62 11.34 1.62
ITEM: TIMESTEP
60
ITEM: NUMBER OF ATOMS
1
ITEM: BOX BOUNDS pp pp pp
0 64.80
0 64.80
0 64.80
ITEM: ATOMS id type x y z
3497 2 -0.00 9.72 3.24
ITEM: TIMESTEP
61
ITEM: NUMBER OF ATOMS
1
ITEM: BOX BOUNDS pp pp pp
0 64.80
0 64.80
0 64.80
ITEM: ATOMS id type x y z
3497 2 1.62 11.34 1.62
ITEM: TIMESTEP
62
ITEM: NUMBER OF ATOMS
1
ITEM: BOX BOUNDS pp pp pp
0 64.80
0 64.80
0 64.80
ITEM: ATOMS id type x y z
3497 2 -0.00 12.96 -0.00
ITEM: TIMESTEP
63
ITEM: NUMBER OF ATOMS
1
ITEM: BOX BOUNDS pp pp pp
0 64.80
0 64.80
0 64.80
ITEM: ATOMS id type x y z
3497 2 1.62 11.34 1.62
ITEM: TIMESTEP
64
ITEM: NUMBER OF ATOMS
1
ITEM: BOX BOUNDS pp pp pp
0 64.80
0 64.80
0 64.80
ITEM: ATOMS id type x y z
3497 2 -0.00 9.72 3.24
ITEM: TIMESTEP
65
ITEM: NUMBER OF ATOMS
1
ITEM: BOX BOUNDS pp pp pp
0 64.80
0 64.80
0 64.80
ITEM: ATOMS id type x y z
3497 2 1.62 11.34 1.62
ITEM: TIMESTEP
66
ITEM: NUMBER OF ATOMS
1
ITEM: BOX BOUNDS pp pp pp
0 64.80
0 64.80
0 64.80
ITEM: ATOMS id type x y z
3497 2 -0.00 9.72 3.24
ITEM: TIMESTEP
67
ITEM: NUMBER OF ATOMS
1
ITEM: BOX BOUNDS pp pp pp
0 64.80
0 64.80
0 64.80
ITEM: ATOMS id type x y z
3497 2 1.62 11.34 1.62
ITEM: TIMESTEP
68
ITEM: NUMBER OF ATOMS
1
ITEM: BOX BOUNDS pp pp pp
0 64.80
0 64.80
0 64.80
ITEM: ATOMS id type x y z
3497 2 -0.00 9.72 3.24
ITEM: TIMESTEP
69
ITEM: NUMBER OF ATOMS
1
ITEM: BOX BOUNDS pp pp pp
0 64.80
0 64.80
0 64.80
ITEM: ATOMS id type x y z
3497 2 1.62 11.34 1.62
ITEM: TIMESTEP
70
ITEM: NUMBER OF ATOMS
1
ITEM: BOX BOUNDS pp pp pp
0 64.80
0 64.80
0 64.80
ITEM: ATOMS id type x y z
3497 2 3.24 9.72 -0.00
ITEM: TIMESTEP
71
ITEM: NUMBER OF ATOMS
1
ITEM: BOX BOUNDS pp pp pp
0 64.80
0 64.80
0 64.80
ITEM: ATOMS id type x y z
3497 2 1.62 8.10 -1.62
ITEM: TIMESTEP
72
ITEM: NUMBER OF ATOMS
1
ITEM: BOX BOUNDS pp pp pp
0 64.80
0 64.80
0 64.80
ITEM: ATOMS id type x y z
3497 2 3.24 9.72 -0.00
ITEM: TIMESTEP
73
ITEM: NUMBER OF ATOMS
1
ITEM: BOX BOUNDS pp pp pp
0 64.80
0 64.80
0 64.80
ITEM: ATOMS id type x y z
3497 2 1.62 11.34 1.62
ITEM: TIMESTEP
74
ITEM: NUMBER OF ATOMS
1
ITEM: BOX BOUNDS pp pp pp
0 64.80
0 64.80
0 64.80
ITEM: ATOMS id type x y z
3497 2 -0.00 9.72 3.24
ITEM: TIMESTEP
75
ITEM: NUMBER OF ATOMS
1
ITEM: BOX BOUNDS pp pp pp
0 64.80
0 64.80
0 64.80
ITEM: ATOMS id type x y z
3497 2 -1.62 8.10 1.62
ITEM: TIMESTEP
76
ITEM: NUMBER OF ATOMS
1
ITEM: BOX BOUNDS pp pp pp
0 64.80
0 64.80
0 64.80
ITEM: ATOMS id type x y z
3497 2 -0.00 9.72 3.24
ITEM: TIMESTEP
77
ITEM: NUMBER OF ATOMS
1
ITEM: BOX BOUNDS pp pp pp
0 64.80
0 64.80
0 64.80
ITEM: ATOMS id type x y z
3497 2 -1.62 8.10 1.62
ITEM: TIMESTEP
78
ITEM: NUMBER OF ATOMS
1
ITEM: BOX BOUNDS pp pp pp
0 64.80
0 64.80
0 64.80
ITEM: ATOMS id type x y z
3497 2 -3.24 6.48 3.24
ITEM: TIMESTEP
79
ITEM: NUMBER OF ATOMS
1
ITEM: BOX BOUNDS pp pp pp
0 64.80
0 64.80
0 64.80
ITEM: ATOMS id type x y z
3497 2 -1.62 8.10 1.62
ITEM: TIMESTEP
80
ITEM: NUMBER OF ATOMS
1
ITEM: BOX BOUNDS pp pp pp
0 64.80
0 64.80
0 64.80
ITEM: ATOMS id type x y z
3497 2 -3.24 9.72 -0.00
ITEM: TIMESTEP
81
ITEM: NUMBER OF ATOMS
1
ITEM: BOX BOUNDS pp pp pp
0 64.80
0 64.80
0 64.80
ITEM: ATOMS id type x y z
3497 2 -4.86 11.34 1.62
ITEM: TIMESTEP
82
ITEM: NUMBER OF ATOMS
1
ITEM: BOX BOUNDS pp pp pp
0 64.80
0 64.80
0 64.80
ITEM: ATOMS id type x y z
3497 2 -3.24 12.96 -0.00
ITEM: TIMESTEP
83
ITEM: NUMBER OF ATOMS
1
ITEM: BOX BOUNDS pp pp pp
0 64.80
0 64.80
0 64.80
ITEM: ATOMS id type x y z
3497 2 -1.62 14.58 1.62
ITEM: TIMESTEP
84
ITEM: NUMBER OF ATOMS
1
ITEM: BOX BOUNDS pp pp pp
0 64.80
0 64.80
0 64.80
ITEM: ATOMS id type x y z
3497 2 -3.24 16.20 3.24
ITEM: TIMESTEP
85
ITEM: NUMBER OF ATOMS
1
ITEM: BOX BOUNDS pp pp pp
0 64.80
0 64.80
0 64.80
ITEM: ATOMS id type x y z
3497 2 -1.62 17.82 1.62
ITEM: TIMESTEP
86
ITEM: NUMBER OF ATOMS
1
ITEM: BOX BOUNDS pp pp pp
0 64.80
0 64.80
0 64.80
ITEM: ATOMS id type x y z
3497 2 -0.00 16.20 -0.00
ITEM: TIMESTEP
87
ITEM: NUMBER OF ATOMS
1
ITEM: BOX BOUNDS pp pp pp
0 64.80
0 64.80
0 64.80
ITEM: ATOMS id type x y z
3497 2 1.62 14.58 1.62
ITEM: TIMESTEP
88
ITEM: NUMBER OF ATOMS
1
ITEM: BOX BOUNDS pp pp pp
0 64.80
0 64.80
0 64.80
ITEM: ATOMS id type x y z
3497 2 -0.00 16.20 -0.00
ITEM: TIMESTEP
89
ITEM: NUMBER OF ATOMS
1
ITEM: BOX BOUNDS pp pp pp
0 64.80
0 64.80
0 64.80
ITEM: ATOMS id type x y z
3497 2 -1.62 17.82 1.62
ITEM: TIMESTEP
90
ITEM: NUMBER OF ATOMS
1
ITEM: BOX BOUNDS pp pp pp
0 64.80
0 64.80
0 64.80
ITEM: ATOMS id type x y z
3497 2 -0.00 16.20 -0.00
ITEM: TIMESTEP
91
ITEM: NUMBER OF ATOMS
1
ITEM: BOX BOUNDS pp pp pp
0 64.80
0 64.80
0 64.80
ITEM: ATOMS id type x y z
3497 2 -1.62 14.58 -1.62
ITEM: TIMESTEP
92
ITEM: NUMBER OF ATOMS
1
ITEM: BOX BOUNDS pp pp pp
0 64.80
0 64.80
0 64.80
ITEM: ATOMS id type x y z
3497 2 -0.00 16.20 -0.00
ITEM: TIMESTEP
93
ITEM: NUMBER OF ATOMS
1
ITEM: BOX BOUNDS pp pp pp
0 64.80
0 64.80
0 64.80
ITEM: ATOMS id type x y z
3497 2 -1.62 14.58 1.62
ITEM: TIMESTEP
94
ITEM: NUMBER OF ATOMS
1
ITEM: BOX BOUNDS pp pp pp
0 64.80
0 64.80
0 64.80
ITEM: ATOMS id type x y z
3497 2 -0.00 16.20 -0.00
ITEM: TIMESTEP
95
ITEM: NUMBER OF ATOMS
1
ITEM: BOX BOUNDS pp pp pp
0 64.80
0 64.80
0 64.80
ITEM: ATOMS id type x y z
3497 2 1.62 17.82 -1.62
ITEM: TIMESTEP
96
ITEM: NUMBER OF ATOMS
1
ITEM: BOX BOUNDS pp pp pp
0 64.80
0 64.80
0 64.80
ITEM: ATOMS id type x y z
3497 2 3.24 16.20 -3.24
ITEM: TIMESTEP
97
ITEM: NUMBER OF ATOMS
1
ITEM: BOX BOUNDS pp pp pp
0 64.80
0 64.80
0 64.80
ITEM: ATOMS id type x y z
3497 2 4.86 14.58 -1.62
ITEM: TIMESTEP
98
ITEM: NUMBER OF ATOMS
1
ITEM: BOX BOUNDS pp pp pp
0 64.80
0 64.80
0 64.80
ITEM: ATOMS id type x y z
3497 2 3.24 16.20 -3.24
ITEM: TIMESTEP
99
ITEM: NUMBER OF ATOMS
1
ITEM: BOX BOUNDS pp pp pp
0 64.80
0 64.80
0 64.80
ITEM: ATOMS id type x y z
3497 2 1.62 17.82 -1.62
ITEM: TIMESTEP
100
ITEM: NUMBER OF ATOMS
1
ITEM: BOX BOUNDS pp pp pp
0 64.80
0 64.80
0 64.80
ITEM: ATOMS id type x y z
3497 2 -0.00 16.20 -0.00
ITEM: TIMESTEP
101
ITEM: NUMBER OF ATOMS
1
ITEM: BOX BOUNDS pp pp pp
0 64.80
0 64.80
0 64.80
ITEM: ATOMS id type x y z
3497 2 -1.62 14.58 -1.62
ITEM: TIMESTEP
102
ITEM: NUMBER OF ATOMS
1
ITEM: BOX BOUNDS pp pp pp
0 64.80
0 64.80
0 64.80
ITEM: ATOMS id type x y z
3497 2 -0.00 16.20 -0.00
ITEM: TIMESTEP
103
ITEM: NUMBER OF ATOMS
1
ITEM: BOX BOUNDS pp pp pp
0 64.80
0 64.80
0 64.80
ITEM: ATOMS id type x y z
3497 2 -1.62 14.58 -1.62
ITEM: TIMESTEP
104
ITEM: NUMBER OF ATOMS
1
ITEM: BOX BOUNDS pp pp pp
0 64.80
0 64.80
0 64.80
ITEM: ATOMS id type x y z
3497 2 -0.00 16.20 -0.00
ITEM: TIMESTEP
105
ITEM: NUMBER OF ATOMS
1
ITEM: BOX BOUNDS pp pp pp
0 64.80
0 64.80
0 64.80
ITEM: ATOMS id type x y z
3497 2 -1.62 17.82 1.62
ITEM: TIMESTEP
106
ITEM: NUMBER OF ATOMS
1
ITEM: BOX BOUNDS pp pp pp
0 64.80
0 64.80
0 64.80
ITEM: ATOMS id type x y z
3497 2 -0.00 16.20 -0.00
ITEM: TIMESTEP
107
ITEM: NUMBER OF ATOMS
1
ITEM: BOX BOUNDS pp pp pp
0 64.80
0 64.80
0 64.80
ITEM: ATOMS id type x y z
3497 2 -1.62 14.58 -1.62
ITEM: TIMESTEP
108
ITEM: NUMBER OF ATOMS
1
ITEM: BOX BOUNDS pp pp pp
0 64.80
0 64.80
0 64.80
ITEM: ATOMS id type x y z
3497 2 -0.00 16.20 -0.00
ITEM: TIMESTEP
109
ITEM: NUMBER OF ATOMS
1
ITEM: BOX BOUNDS pp pp pp
0 64.80
0 64.80
0 64.80
ITEM: ATOMS id type x y z
3497 2 -1.62 14.58 -1.62
ITEM: TIMESTEP
110
ITEM: NUMBER OF ATOMS
1
ITEM: BOX BOUNDS pp pp pp
0 64.80
0 64.80
0 64.80
ITEM: ATOMS id type x y z
3497 2 -0.00 16.20 -0.00
ITEM: TIMESTEP
111
ITEM: NUMBER OF ATOMS
1
ITEM: BOX BOUNDS pp pp pp
0 64.80
0 64.80
0 64.80
ITEM: ATOMS id type x y z
3497 2 1.62 17.82 1.62
ITEM: TIMESTEP
112
ITEM: NUMBER OF ATOMS
1
ITEM: BOX BOUNDS pp pp pp
0 64.80
0 64.80
0 64.80
ITEM: ATOMS id type x y z
3497 2 -0.00 16.20 -0.00
ITEM: TIMESTEP
113
ITEM: NUMBER OF ATOMS
1
ITEM: BOX BOUNDS pp pp pp
0 64.80
0 64.80
0 64.80
ITEM: ATOMS id type x y z
3497 2 -1.62 14.58 1.62
ITEM: TIMESTEP
114
ITEM: NUMBER OF ATOMS
1
ITEM: BOX BOUNDS pp pp pp
0 64.80
0 64.80
0 64.80
ITEM: ATOMS id type x y z
3497 2 -3.24 16.20 3.24
ITEM: TIMESTEP
115
ITEM: NUMBER OF ATOMS
1
ITEM: BOX BOUNDS pp pp pp
0 64.80
0 64.80
0 64.80
ITEM: ATOMS id type x y z
3497 2 -1.62 17.82 1.62
ITEM: TIMESTEP
116
ITEM: NUMBER OF ATOMS
1
ITEM: BOX BOUNDS pp pp pp
0 64.80
0 64.80
0 64.80
ITEM: ATOMS id type x y z
3497 2 -0.00 16.20 -0.00
ITEM: TIMESTEP
117
ITEM: NUMBER OF ATOMS
1
ITEM: BOX BOUNDS pp pp pp
0 64.80
0 64.80
0 64.80
ITEM: ATOMS id type x y z
3497 2 -1.62 14.58 1.62
ITEM: TIMESTEP
118
ITEM: NUMBER OF ATOMS
1
ITEM: BOX BOUNDS pp pp pp
0 64.80
0 64.80
0 64.80
ITEM: ATOMS id type x y z
3497 2 -0.00 16.20 -0.00
ITEM: TIMESTEP
119
ITEM: NUMBER OF ATOMS
1
ITEM: BOX BOUNDS pp pp pp
0 64.80
0 64.80
0 64.80
ITEM: ATOMS id type x y z
3497 2 1.62 17.82 1.62
ITEM: TIMESTEP
120
ITEM: NUMBER OF ATOMS
1
ITEM: BOX BOUNDS pp pp pp
0 64.80
0 64.80
0 64.80
ITEM: ATOMS id type x y z
3497 2 -0.00 19.44 -0.00
ITEM: TIMESTEP
121
ITEM: NUMBER OF ATOMS
1
ITEM: BOX BOUNDS pp pp pp
0 64.80
0 64.80
0 64.80
ITEM: ATOMS id type x y z
3497 2 1.62 21.06 1.62
ITEM: TIMESTEP
122
ITEM: NUMBER OF ATOMS
1
ITEM: BOX BOUNDS pp pp pp
0 64.80
0 64.80
0 64.80
ITEM: ATOMS id type x y z
3497 2 -0.00 19.44 -0.00
ITEM: TIMESTEP
123
ITEM: NUMBER OF ATOMS
1
ITEM: BOX BOUNDS pp pp pp
0 64.80
0 64.80
0 64.80
ITEM: ATOMS id type x y z
3497 2 -1.62 17.82 1.62
ITEM: TIMESTEP
124
ITEM: NUMBER OF ATOMS
1
ITEM: BOX BOUNDS pp pp pp
0 64.80
0 64.80
0 64.80
ITEM: ATOMS id type x y z
3497 2 -0.00 19.44 -0.00
ITEM: TIMESTEP
125
ITEM: NUMBER OF ATOMS
1
ITEM: BOX BOUNDS pp pp pp
0 64.80
0 64.80
0 64.80
ITEM: ATOMS id type x y z
3497 2 1.62 21.06 1.62
ITEM: TIMESTEP
126
ITEM: NUMBER OF ATOMS
1
ITEM: BOX BOUNDS pp pp pp
0 64.80
0 64.80
0 64.80
ITEM: ATOMS id type x y z
3497 2 -0.00 22.68 -0.00
ITEM: TIMESTEP
127
ITEM: NUMBER OF ATOMS
1
ITEM: BOX BOUNDS pp pp pp
0 64.80
0 64.80
0 64.80
ITEM: ATOMS id type x y z
3497 2 1.62 21.06 1.62
ITEM: TIMESTEP
128
ITEM: NUMBER OF ATOMS
1
ITEM: BOX BOUNDS pp pp pp
0 64.80
0 64.80
0 64.80
ITEM: ATOMS id type x y z
3497 2 3.24 19.44 3.24
ITEM: TIMESTEP
129
ITEM: NUMBER OF ATOMS
1
ITEM: BOX BOUNDS pp pp pp
0 64.80
0 64.80
0 64.80
ITEM: ATOMS id type x y z
3497 2 1.62 17.82 4.86
ITEM: TIMESTEP
130
ITEM: NUMBER OF ATOMS
1
ITEM: BOX BOUNDS pp pp pp
0 64.80
0 64.80
0 64.80
ITEM: ATOMS id type x y z
3497 2 -0.00 16.20 3.24
ITEM: TIMESTEP
131
ITEM: NUMBER OF ATOMS
1
ITEM: BOX BOUNDS pp pp pp
0 64.80
0 64.80
0 64.80
ITEM: ATOMS id type x y z
3497 2 1.62 14.58 4.86
ITEM: TIMESTEP
132
ITEM: NUMBER OF ATOMS
1
ITEM: BOX BOUNDS pp pp pp
0 64.80
0 64.80
0 64.80
ITEM: ATOMS id type x y z
3497 2 3.24 12.96 3.24
ITEM: TIMESTEP
133
ITEM: NUMBER OF ATOMS
1
ITEM: BOX BOUNDS pp pp pp
0 64.80
0 64.80
0 64.80
ITEM: ATOMS id type x y z
3497 2 1.62 11.34 4.86
ITEM: TIMESTEP
134
ITEM: NUMBER OF ATOMS
1
ITEM: BOX BOUNDS pp pp pp
0 64.80
0 64.80
0 64.80
ITEM: ATOMS id type x y z
3497 2 -0.00 9.72 3.24
ITEM: TIMESTEP
135
ITEM: NUMBER OF ATOMS
1
ITEM: BOX BOUNDS pp pp pp
0 64.80
0 64.80
0 64.80
ITEM: ATOMS id type x y z
3497 2 -1.62 8.10 1.62
ITEM: TIMESTEP
136
ITEM: NUMBER OF ATOMS
1
ITEM: BOX BOUNDS pp pp pp
0 64.80
0 64.80
0 64.80
ITEM: ATOMS id type x y z
3497 2 -0.00 9.72 3.24
ITEM: TIMESTEP
137
ITEM: NUMBER OF ATOMS
1
ITEM: BOX BOUNDS pp pp pp
0 64.80
0 64.80
0 64.80
ITEM: ATOMS id type x y z
3497 2 -1.62 8.10 1.62
ITEM: TIMESTEP
138
ITEM: NUMBER OF ATOMS
1
ITEM: BOX BOUNDS pp pp pp
0 64.80
0 64.80
0 64.80
ITEM: ATOMS id type x y z
3497 2 -0.00 9.72 3.24
ITEM: TIMESTEP
139
ITEM: NUMBER OF ATOMS
1
ITEM: BOX BOUNDS pp pp pp
0 64.80
0 64.80
0 64.80
ITEM: ATOMS id type x y z
3497 2 1.62 11.34 1.62
ITEM: TIMESTEP
140
ITEM: NUMBER OF ATOMS
1
ITEM: BOX BOUNDS pp pp pp
0 64.80
0 64.80
0 64.80
ITEM: ATOMS id type x y z
3497 2 -0.00 9.72 3.24
ITEM: TIMESTEP
141
ITEM: NUMBER OF ATOMS
1
ITEM: BOX BOUNDS pp pp pp
0 64.80
0 64.80
0 64.80
ITEM: ATOMS id type x y z
3497 2 -1.62 8.10 1.62
ITEM: TIMESTEP
142
ITEM: NUMBER OF ATOMS
1
ITEM: BOX BOUNDS pp pp pp
0 64.80
0 64.80
0 64.80
ITEM: ATOMS id type x y z
3497 2 -0.00 9.72 3.24
ITEM: TIMESTEP
143
ITEM: NUMBER OF ATOMS
1
ITEM: BOX BOUNDS pp pp pp
0 64.80
0 64.80
0 64.80
ITEM: ATOMS id type x y z
3497 2 1.62 11.34 1.62
ITEM: TIMESTEP
144
ITEM: NUMBER OF ATOMS
1
ITEM: BOX BOUNDS pp pp pp
0 64.80
0 64.80
0 64.80
ITEM: ATOMS id type x y z
3497 2 -0.00 9.72 3.24
ITEM: TIMESTEP
145
ITEM: NUMBER OF ATOMS
1
ITEM: BOX BOUNDS pp pp pp
0 64.80
0 64.80
0 64.80
ITEM: ATOMS id type x y z
3497 2 1.62 11.34 1.62
ITEM: TIMESTEP
146
ITEM: NUMBER OF ATOMS
1
ITEM: BOX BOUNDS pp pp pp
0 64.80
0 64.80
0 64.80
ITEM: ATOMS id type x y z
3497 2 -0.00 9.72 3.24
ITEM: TIMESTEP
147
ITEM: NUMBER OF ATOMS
1
ITEM: BOX BOUNDS pp pp pp
0 64.80
0 64.80
0 64.80
ITEM: ATOMS id type x y z
3497 2 -1.62 8.10 1.62
ITEM: TIMESTEP
148
ITEM: NUMBER OF ATOMS
1
ITEM: BOX BOUNDS pp pp pp
0 64.80
0 64.80
0 64.80
ITEM: ATOMS id type x y z
3497 2 -0.00 9.72 3.24
ITEM: TIMESTEP
149
ITEM: NUMBER OF ATOMS
1
ITEM: BOX BOUNDS pp pp pp
0 64.80
0 64.80
0 64.80
ITEM: ATOMS id type x y z
3497 2 1.62 11.34 1.62
ITEM: TIMESTEP
150
ITEM: NUMBER OF ATOMS
1
ITEM: BOX BOUNDS pp pp pp
0 64.80
0 64.80
0 64.80
ITEM: ATOMS id type x y z
3497 2 -0.00 12.96 -0.00
ITEM: TIMESTEP
151
ITEM: NUMBER OF ATOMS
1
ITEM: BOX BOUNDS pp pp pp
0 64.80
0 64.80
0 64.80
ITEM: ATOMS id type x y z
3497 2 -1.62 11.34 -1.62
ITEM: TIMESTEP
152
ITEM: NUMBER OF ATOMS
1
ITEM: BOX BOUNDS pp pp pp
0 64.80
0 64.80
0 64.80
ITEM: ATOMS id type x y z
3497 2 -0.00 12.96 -0.00
ITEM: TIMESTEP
153
ITEM: NUMBER OF ATOMS
1
ITEM: BOX BOUNDS pp pp pp
0 64.80
0 64.80
0 64.80
ITEM: ATOMS id type x y z
3497 2 1.62 11.34 1.62
ITEM: TIMESTEP
154
ITEM: NUMBER OF ATOMS
1
ITEM: BOX BOUNDS pp pp pp
0 64.80
0 64.80
0 64.80
ITEM: ATOMS id type x y z
3497 2 -0.00 9.72 3.24
ITEM: TIMESTEP
155
ITEM: NUMBER OF ATOMS
1
ITEM: BOX BOUNDS pp pp pp
0 64.80
0 64.80
0 64.80
ITEM: ATOMS id type x y z
3497 2 -1.62 8.10 1.62
ITEM: TIMESTEP
156
ITEM: NUMBER OF ATOMS
1
ITEM: BOX BOUNDS pp pp pp
0 64.80
0 64.80
0 64.80
ITEM: ATOMS id type x y z
3497 2 -0.00 9.72 3.24
ITEM: TIMESTEP
157
ITEM: NUMBER OF ATOMS
1
ITEM: BOX BOUNDS pp pp pp
0 64.80
0 64.80
0 64.80
ITEM: ATOMS id type x y z
3497 2 -1.62 8.10 1.62
ITEM: TIMESTEP
158
ITEM: NUMBER OF ATOMS
1
ITEM: BOX BOUNDS pp pp pp
0 64.80
0 64.80
0 64.80
ITEM: ATOMS id type x y z
3497 2 -0.00 6.48 -0.00
ITEM: TIMESTEP
159
ITEM: NUMBER OF ATOMS
1
ITEM: BOX BOUNDS pp pp pp
0 64.80
0 64.80
0 64.80
ITEM: ATOMS id type x y z
3497 2 -1.62 8.10 1.62
ITEM: TIMESTEP
160
ITEM: NUMBER OF ATOMS
1
ITEM: BOX BOUNDS pp pp pp
0 64.80
0 64.80
0 64.80
ITEM: ATOMS id type x y z
3497 2 -0.00 9.72 3.24
ITEM: TIMESTEP
161
ITEM: NUMBER OF ATOMS
1
ITEM: BOX BOUNDS pp pp pp
0 64.80
0 64.80
0 64.80
ITEM: ATOMS id type x y z
3497 2 1.62 11.34 1.62
ITEM: TIMESTEP
162
ITEM: NUMBER OF ATOMS
1
ITEM: BOX BOUNDS pp pp pp
0 64.80
0 64.80
0 64.80
ITEM: ATOMS id type x y z
3497 2 -0.00 9.72 3.24
ITEM: TIMESTEP
163
ITEM: NUMBER OF ATOMS
1
ITEM: BOX BOUNDS pp pp pp
0 64.80
0 64.80
0 64.80
ITEM: ATOMS id type x y z
3497 2 -1.62 8.10 1.62
ITEM: TIMESTEP
164
ITEM: NUMBER OF ATOMS
1
ITEM: BOX BOUNDS pp pp pp
0 64.80
0 64.80
0 64.80
ITEM: ATOMS id type x y z
3497 2 -0.00 9.72 3.24
ITEM: TIMESTEP
165
ITEM: NUMBER OF ATOMS
1
ITEM: BOX BOUNDS pp pp pp
0 64.80
0 64.80
0 64.80
ITEM: ATOMS id type x y z
3497 2 -1.62 8.10 1.62
ITEM: TIMESTEP
166
ITEM: NUMBER OF ATOMS
1
ITEM: BOX BOUNDS pp pp pp
0 64.80
0 64.80
0 64.80
ITEM: ATOMS id type x y z
3497 2 -0.00 9.72 3.24
ITEM: TIMESTEP
167
ITEM: NUMBER OF ATOMS
1
ITEM: BOX BOUNDS pp pp pp
0 64.80
0 64.80
0 64.80
ITEM: ATOMS id type x y z
3497 2 -1.62 8.10 1.62
ITEM: TIMESTEP
168
ITEM: NUMBER OF ATOMS
1
ITEM: BOX BOUNDS pp pp pp
0 64.80
0 64.80
0 64.80
ITEM: ATOMS id type x y z
3497 2 -0.00 9.72 3.24
ITEM: TIMESTEP
169
ITEM: NUMBER OF ATOMS
1
ITEM: BOX BOUNDS pp pp pp
0 64.80
0 64.80
0 64.80
ITEM: ATOMS id type x y z
3497 2 1.62 11.34 1.62
ITEM: TIMESTEP
170
ITEM: NUMBER OF ATOMS
1
ITEM: BOX BOUNDS pp pp pp
0 64.80
0 64.80
0 64.80
ITEM: ATOMS id type x y z
3497 2 -0.00 9.72 3.24
ITEM: TIMESTEP
171
ITEM: NUMBER OF ATOMS
1
ITEM: BOX BOUNDS pp pp pp
0 64.80
0 64.80
0 64.80
ITEM: ATOMS id type x y z
3497 2 -1.62 8.10 1.62
ITEM: TIMESTEP
172
ITEM: NUMBER OF ATOMS
1
ITEM: BOX BOUNDS pp pp pp
0 64.80
0 64.80
0 64.80
ITEM: ATOMS id type x y z
3497 2 -0.00 6.48 -0.00
ITEM: TIMESTEP
173
ITEM: NUMBER OF ATOMS
1
ITEM: BOX BOUNDS pp pp pp
0 64.80
0 64.80
0 64.80
ITEM: ATOMS id type x y z
3497 2 -1.62 8.10 1.62
ITEM: TIMESTEP
174
ITEM: NUMBER OF ATOMS
1
ITEM: BOX BOUNDS pp pp pp
0 64.80
0 64.80
0 64.80
ITEM: ATOMS id type x y z
3497 2 -0.00 9.72 3.24
ITEM: TIMESTEP
175
ITEM: NUMBER OF ATOMS
1
ITEM: BOX BOUNDS pp pp pp
0 64.80
0 64.80
0 64.80
ITEM: ATOMS id type x y z
3497 2 -1.62 8.10 1.62
ITEM: TIMESTEP
176
ITEM: NUMBER OF ATOMS
1
ITEM: BOX BOUNDS pp pp pp
0 64.80
0 64.80
0 64.80
ITEM: ATOMS id type x y z
3497 2 -0.00 9.72 3.24
ITEM: TIMESTEP
177
ITEM: NUMBER OF ATOMS
1
ITEM: BOX BOUNDS pp pp pp
0 64.80
0 64.80
0 64.80
ITEM: ATOMS id type x y z
3497 2 -1.62 8.10 1.62
ITEM: TIMESTEP
178
ITEM: NUMBER OF ATOMS
1
ITEM: BOX BOUNDS pp pp pp
0 64.80
0 64.80
0 64.80
ITEM: ATOMS id type x y z
3497 2 -0.00 9.72 3.24
ITEM: TIMESTEP
179
ITEM: NUMBER OF ATOMS
1
ITEM: BOX BOUNDS pp pp pp
0 64.80
0 64.80
0 64.80
ITEM: ATOMS id type x y z
3497 2 -1.62 8.10 1.62
ITEM: TIMESTEP
180
ITEM: NUMBER OF ATOMS
1
ITEM: BOX BOUNDS pp pp pp
0 64.80
0 64.80
0 64.80
ITEM: ATOMS id type x y z
3497 2 -0.00 9.72 3.24
ITEM: TIMESTEP
181
ITEM: NUMBER OF ATOMS
1
ITEM: BOX BOUNDS pp pp pp
0 64.80
0 64.80
0 64.80
ITEM: ATOMS id type x y z
3497 2 -1.62 8.10 1.62
ITEM: TIMESTEP
182
ITEM: NUMBER OF ATOMS
1
ITEM: BOX BOUNDS pp pp pp
0 64.80
0 64.80
0 64.80
ITEM: ATOMS id type x y z
3497 2 -0.00 9.72 3.24
ITEM: TIMESTEP
183
ITEM: NUMBER OF ATOMS
1
ITEM: BOX BOUNDS pp pp pp
0 64.80
0 64.80
0 64.80
ITEM: ATOMS id type x y z
3497 2 -1.62 8.10 1.62
ITEM: TIMESTEP
184
ITEM: NUMBER OF ATOMS
1
ITEM: BOX BOUNDS pp pp pp
0 64.80
0 64.80
0 64.80
ITEM: ATOMS id type x y z
3497 2 -0.00 9.72 3.24
ITEM: TIMESTEP
185
ITEM: NUMBER OF ATOMS
1
ITEM: BOX BOUNDS pp pp pp
0 64.80
0 64.80
0 64.80
ITEM: ATOMS id type x y z
3497 2 1.62 11.34 1.62
ITEM: TIMESTEP
186
ITEM: NUMBER OF ATOMS
1
ITEM: BOX BOUNDS pp pp pp
0 64.80
0 64.80
0 64.80
ITEM: ATOMS id type x y z
3497 2 -0.00 9.72 3.24
ITEM: TIMESTEP
187
ITEM: NUMBER OF ATOMS
1
ITEM: BOX BOUNDS pp pp pp
0 64.80
0 64.80
0 64.80
ITEM: ATOMS id type x y z
3497 2 1.62 11.34 1.62
ITEM: TIMESTEP
188
ITEM: NUMBER OF ATOMS
1
ITEM: BOX BOUNDS pp pp pp
0 64.80
0 64.80
0 64.80
ITEM: ATOMS id type x y z
3497 2 -0.00 9.72 3.24
ITEM: TIMESTEP
189
ITEM: NUMBER OF ATOMS
1
ITEM: BOX BOUNDS pp pp pp
0 64.80
0 64.80
0 64.80
ITEM: ATOMS id type x y z
3497 2 -1.62 8.10 1.62
ITEM: TIMESTEP
190
ITEM: NUMBER OF ATOMS
1
ITEM: BOX BOUNDS pp pp pp
0 64.80
0 64.80
0 64.80
ITEM: ATOMS id type x y z
3497 2 -0.00 9.72 3.24
ITEM: TIMESTEP
191
ITEM: NUMBER OF ATOMS
1
ITEM: BOX BOUNDS pp pp pp
0 64.80
0 64.80
0 64.80
ITEM: ATOMS id type x y z
3497 2 -1.62 8.10 1.62
ITEM: TIMESTEP
192
ITEM: NUMBER OF ATOMS
1
ITEM: BOX BOUNDS pp pp pp
0 64.80
0 64.80
0 64.80
ITEM: ATOMS id type x y z
3497 2 -0.00 9.72 3.24
ITEM: TIMESTEP
193
ITEM: NUMBER OF ATOMS
1
ITEM: BOX BOUNDS pp pp pp
0 64.80
0 64.80
0 64.80
ITEM: ATOMS id type x y z
3497 2 -1.62 8.10 1.62
ITEM: TIMESTEP
194
ITEM: NUMBER OF ATOMS
1
ITEM: BOX BOUNDS pp pp pp
0 64.80
0 64.80
0 64.80
ITEM: ATOMS id type x y z
3497 2 -3.24 6.48 3.24
ITEM: TIMESTEP
195
ITEM: NUMBER OF ATOMS
1
ITEM: BOX BOUNDS pp pp pp
0 64.80
0 64.80
0 64.80
ITEM: ATOMS id type x y z
3497 2 -1.62 8.10 1.62
ITEM: TIMESTEP
196
ITEM: NUMBER OF ATOMS
1
ITEM: BOX BOUNDS pp pp pp
0 64.80
0 64.80
0 64.80
ITEM: ATOMS id type x y z
3497 2 -0.00 9.72 3.24
ITEM: TIMESTEP
197
ITEM: NUMBER OF ATOMS
1
ITEM: BOX BOUNDS pp pp pp
0 64.80
0 64.80
0 64.80
ITEM: ATOMS id type x y z
3497 2 -1.62 8.10 1.62
ITEM: TIMESTEP
198
ITEM: NUMBER OF ATOMS
1
ITEM: BOX BOUNDS pp pp pp
0 64.80
0 64.80
0 64.80
ITEM: ATOMS id type x y z
3497 2 -0.00 9.72 3.24
ITEM: TIMESTEP
199
ITEM: NUMBER OF ATOMS
1
ITEM: BOX BOUNDS pp pp pp
0 64.80
0 64.80
0 64.80
ITEM: ATOMS id type x y z
3497 2 1.62 11.34 1.62
ITEM: TIMESTEP
200
ITEM: NUMBER OF ATOMS
1
ITEM: BOX BOUNDS pp pp pp
0 64.80
0 64.80
0 64.80
ITEM: ATOMS id type x y z
3497 2 -0.00 9.72 3.24
ITEM: TIMESTEP
201
ITEM: NUMBER OF ATOMS
1
ITEM: BOX BOUNDS pp pp pp
0 64.80
0 64.80
0 64.80
ITEM: ATOMS id type x y z
3497 2 -1.62 8.10 1.62
ITEM: TIMESTEP
202
ITEM: NUMBER OF ATOMS
1
ITEM: BOX BOUNDS pp pp pp
0 64.80
0 64.80
0 64.80
ITEM: ATOMS id type x y z
3497 2 -0.00 6.48 -0.00
ITEM: TIMESTEP
203
ITEM: NUMBER OF ATOMS
1
ITEM: BOX BOUNDS pp pp pp
0 64.80
0 64.80
0 64.80
ITEM: ATOMS id type x y z
3497 2 -1.62 8.10 1.62
ITEM: TIMESTEP
204
ITEM: NUMBER OF ATOMS
1
ITEM: BOX BOUNDS pp pp pp
0 64.80
0 64.80
0 64.80
ITEM: ATOMS id type x y z
3497 2 -0.00 9.72 3.24
ITEM: TIMESTEP
205
ITEM: NUMBER OF ATOMS
1
ITEM: BOX BOUNDS pp pp pp
0 64.80
0 64.80
0 64.80
ITEM: ATOMS id type x y z
3497 2 -1.62 8.10 1.62
ITEM: TIMESTEP
206
ITEM: NUMBER OF ATOMS
1
ITEM: BOX BOUNDS pp pp pp
0 64.80
0 64.80
0 64.80
ITEM: ATOMS id type x y z
3497 2 -0.00 9.72 3.24
ITEM: TIMESTEP
207
ITEM: NUMBER OF ATOMS
1
ITEM: BOX BOUNDS pp pp pp
0 64.80
0 64.80
0 64.80
ITEM: ATOMS id type x y z
3497 2 1.62 11.34 1.62
ITEM: TIMESTEP
208
ITEM: NUMBER OF ATOMS
1
ITEM: BOX BOUNDS pp pp pp
0 64.80
0 64.80
0 64.80
ITEM: ATOMS id type x y z
3497 2 -0.00 12.96 -0.00
ITEM: TIMESTEP
209
ITEM: NUMBER OF ATOMS
1
ITEM: BOX BOUNDS pp pp pp
0 64.80
0 64.80
0 64.80
ITEM: ATOMS id type x y z
3497 2 1.62 11.34 1.62
ITEM: TIMESTEP
210
ITEM: NUMBER OF ATOMS
1
ITEM: BOX BOUNDS pp pp pp
0 64.80
0 64.80
0 64.80
ITEM: ATOMS id type x y z
3497 2 -0.00 12.96 -0.00
ITEM: TIMESTEP
211
ITEM: NUMBER OF ATOMS
1
ITEM: BOX BOUNDS pp pp pp
0 64.80
0 64.80
0 64.80
ITEM: ATOMS id type x y z
3497 2 1.62 11.34 1.62
ITEM: TIMESTEP
212
ITEM: NUMBER OF ATOMS
1
ITEM: BOX BOUNDS pp pp pp
0 64.80
0 64.80
0 64.80
ITEM: ATOMS id type x y z
3497 2 -0.00 12.96 -0.00
ITEM: TIMESTEP
213
ITEM: NUMBER OF ATOMS
1
ITEM: BOX BOUNDS pp pp pp
0 64.80
0 64.80
0 64.80
ITEM: ATOMS id type x y z
3497 2 1.62 11.34 1.62
ITEM: TIMESTEP
214
ITEM: NUMBER OF ATOMS
1
ITEM: BOX BOUNDS pp pp pp
0 64.80
0 64.80
0 64.80
ITEM: ATOMS id type x y z
3497 2 3.24 12.96 -0.00
ITEM: TIMESTEP
215
ITEM: NUMBER OF ATOMS
1
ITEM: BOX BOUNDS pp pp pp
0 64.80
0 64.80
0 64.80
ITEM: ATOMS id type x y z
3497 2 1.62 14.58 -1.62
ITEM: TIMESTEP
216
ITEM: NUMBER OF ATOMS
1
ITEM: BOX BOUNDS pp pp pp
0 64.80
0 64.80
0 64.80
ITEM: ATOMS id type x y z
3497 2 3.24 12.96 -0.00
ITEM: TIMESTEP
217
ITEM: NUMBER OF ATOMS
1
ITEM: BOX BOUNDS pp pp pp
0 64.80
0 64.80
0 64.80
ITEM: ATOMS id type x y z
3497 2 1.62 14.58 1.62
ITEM: TIMESTEP
218
ITEM: NUMBER OF ATOMS
1
ITEM: BOX BOUNDS pp pp pp
0 64.80
0 64.80
0 64.80
ITEM: ATOMS id type x y z
3497 2 3.24 16.20 -0.00
ITEM: TIMESTEP
219
ITEM: NUMBER OF ATOMS
1
ITEM: BOX BOUNDS pp pp pp
0 64.80
0 64.80
0 64.80
ITEM: ATOMS id type x y z
3497 2 4.86 14.58 -1.62
ITEM: TIMESTEP
220
ITEM: NUMBER OF ATOMS
1
ITEM: BOX BOUNDS pp pp pp
0 64.80
0 64.80
0 64.80
ITEM: ATOMS id type x y z
3497 2 3.24 16.20 -3.24
ITEM: TIMESTEP
221
ITEM: NUMBER OF ATOMS
1
ITEM: BOX BOUNDS pp pp pp
0 64.80
0 64.80
0 64.80
ITEM: ATOMS id type x y z
3497 2 4.86 14.58 -1.62
ITEM: TIMESTEP
222
ITEM: NUMBER OF ATOMS
1
ITEM: BOX BOUNDS pp pp pp
0 64.80
0 64.80
0 64.80
ITEM: ATOMS id type x y z
3497 2 6.48 12.96 -0.00
ITEM: TIMESTEP
223
ITEM: NUMBER OF ATOMS
1
ITEM: BOX BOUNDS pp pp pp
0 64.80
0 64.80
0 64.80
ITEM: ATOMS id type x y z
3497 2 4.86 14.58 -1.62
ITEM: TIMESTEP
224
ITEM: NUMBER OF ATOMS
1
ITEM: BOX BOUNDS pp pp pp
0 64.80
0 64.80
0 64.80
ITEM: ATOMS id type x y z
3497 2 6.48 16.20 -3.24
ITEM: TIMESTEP
225
ITEM: NUMBER OF ATOMS
1
ITEM: BOX BOUNDS pp pp pp
0 64.80
0 64.80
0 64.80
ITEM: ATOMS id type x y z
3497 2 8.10 14.58 -1.62
ITEM: TIMESTEP
226
ITEM: NUMBER OF ATOMS
1
ITEM: BOX BOUNDS pp pp pp
0 64.80
0 64.80
0 64.80
ITEM: ATOMS id type x y z
3497 2 9.72 12.96 -3.24
ITEM: TIMESTEP
227
ITEM: NUMBER OF ATOMS
1
ITEM: BOX BOUNDS pp pp pp
0 64.80
0 64.80
0 64.80
ITEM: ATOMS id type x y z
3497 2 8.10 11.34 -1.62
ITEM: TIMESTEP
228
ITEM: NUMBER OF ATOMS
1
ITEM: BOX BOUNDS pp pp pp
0 64.80
0 64.80
0 64.80
ITEM: ATOMS id type x y z
3497 2 6.48 9.72 -0.00
ITEM: TIMESTEP
229
ITEM: NUMBER OF ATOMS
1
ITEM: BOX BOUNDS pp pp pp
0 64.80
0 64.80
0 64.80
ITEM: ATOMS id type x y z
3497 2 4.86 8.10 1.62
ITEM: TIMESTEP
230
ITEM: NUMBER OF ATOMS
1
ITEM: BOX BOUNDS pp pp pp
0 64.80
0 64.80
0 64.80
ITEM: ATOMS id type x y z
3497 2 6.48 6.48 3.24
ITEM: TIMESTEP
231
ITEM: NUMBER OF ATOMS
1
ITEM: BOX BOUNDS pp pp pp
0 64.80
0 64.80
0 64.80
ITEM: ATOMS id type x y z
3497 2 8.10 8.10 4.86
ITEM: TIMESTEP
232
ITEM: NUMBER OF ATOMS
1
ITEM: BOX BOUNDS pp pp pp
0 64.80
0 64.80
0 64.80
ITEM: ATOMS id type x y z
3497 2 6.48 9.72 6.48
ITEM: TIMESTEP
233
ITEM: NUMBER OF ATOMS
1
ITEM: BOX BOUNDS pp pp pp
0 64.80
0 64.80
0 64.80
ITEM: ATOMS id type x y z
3497 2 8.10 8.10 4.86
ITEM: TIMESTEP
234
ITEM: NUMBER OF ATOMS
1
ITEM: BOX BOUNDS pp pp pp
0 64.80
0 64.80
0 64.80
ITEM: ATOMS id type x y z
3497 2 6.48 6.48 3.24
ITEM: TIMESTEP
235
ITEM: NUMBER OF ATOMS
1
ITEM: BOX BOUNDS pp pp pp
0 64.80
0 64.80
0 64.80
ITEM: ATOMS id type x y z
3497 2 8.10 4.86 4.86
ITEM: TIMESTEP
236
ITEM: NUMBER OF ATOMS
1
ITEM: BOX BOUNDS pp pp pp
0 64.80
0 64.80
0 64.80
ITEM: ATOMS id type x y z
3497 2 9.72 3.24 6.48
ITEM: TIMESTEP
237
ITEM: NUMBER OF ATOMS
1
ITEM: BOX BOUNDS pp pp pp
0 64.80
0 64.80
0 64.80
ITEM: ATOMS id type x y z
3497 2 11.34 4.86 8.10
ITEM: TIMESTEP
238
ITEM: NUMBER OF ATOMS
1
ITEM: BOX BOUNDS pp pp pp
0 64.80
0 64.80
0 64.80
ITEM: ATOMS id type x y z
3497 2 9.72 3.24 6.48
ITEM: TIMESTEP
239
ITEM: NUMBER OF ATOMS
1
ITEM: BOX BOUNDS pp pp pp
0 64.80
0 64.80
0 64.80
ITEM: ATOMS id type x y z
3497 2 8.10 4.86 4.86
ITEM: TIMESTEP
240
ITEM: NUMBER OF ATOMS
1
ITEM: BOX BOUNDS pp pp pp
0 64.80
0 64.80
0 64.80
ITEM: ATOMS id type x y z
3497 2 6.48 6.48 3.24
ITEM: TIMESTEP
241
ITEM: NUMBER OF ATOMS
1
ITEM: BOX BOUNDS pp pp pp
0 64.80
0 64.80
0 64.80
ITEM: ATOMS id type x y z
3497 2 8.10 4.86 4.86
ITEM: TIMESTEP
242
ITEM: NUMBER OF ATOMS
1
ITEM: BOX BOUNDS pp pp pp
0 64.80
0 64.80
0 64.80
ITEM: ATOMS id type x y z
3497 2 9.72 3.24 6.48
ITEM: TIMESTEP
243
ITEM: NUMBER OF ATOMS
1
ITEM: BOX BOUNDS pp pp pp
0 64.80
0 64.80
0 64.80
ITEM: ATOMS id type x y z
3497 2 11.34 4.86 8.10
ITEM: TIMESTEP
244
ITEM: NUMBER OF ATOMS
1
ITEM: BOX BOUNDS pp pp pp
0 64.80
0 64.80
0 64.80
ITEM: ATOMS id type x y z
3497 2 12.96 3.24 9.72
ITEM: TIMESTEP
245
ITEM: NUMBER OF ATOMS
1
ITEM: BOX BOUNDS pp pp pp
0 64.80
0 64.80
0 64.80
ITEM: ATOMS id type x y z
3497 2 11.34 4.86 8.10
ITEM: TIMESTEP
246
ITEM: NUMBER OF ATOMS
1
ITEM: BOX BOUNDS pp pp pp
0 64.80
0 64.80
0 64.80
ITEM: ATOMS id type x y z
3497 2 9.72 6.48 9.72
ITEM: TIMESTEP
247
ITEM: NUMBER OF ATOMS
1
ITEM: BOX BOUNDS pp pp pp
0 64.80
0 64.80
0 64.80
ITEM: ATOMS id type x y z
3497 2 8.10 8.10 8.10
ITEM: TIMESTEP
248
ITEM: NUMBER OF ATOMS
1
ITEM: BOX BOUNDS pp pp pp
0 64.80
0 64.80
0 64.80
ITEM: ATOMS id type x y z
3497 2 9.72 6.48 6.48
ITEM: TIMESTEP
249
ITEM: NUMBER OF ATOMS
1
ITEM: BOX BOUNDS pp pp pp
0 64.80
0 64.80
0 64.80
ITEM: ATOMS id type x y z
3497 2 8.10 4.86 4.86
ITEM: TIMESTEP
250
ITEM: NUMBER OF ATOMS
1
ITEM: BOX BOUNDS pp pp pp
0 64.80
0 64.80
0 64.80
ITEM: ATOMS id type x y z
3497 2 6.48 3.24 6.48
ITEM: TIMESTEP
251
ITEM: NUMBER OF ATOMS
1
ITEM: BOX BOUNDS pp pp pp
0 64.80
0 64.80
0 64.80
ITEM: ATOMS id type x y z
3497 2 8.10 4.86 4.86
ITEM: TIMESTEP
252
ITEM: NUMBER OF ATOMS
1
ITEM: BOX BOUNDS pp pp pp
0 64.80
0 64.80
0 64.80
ITEM: ATOMS id type x y z
3497 2 9.72 3.24 3.24
ITEM: TIMESTEP
253
ITEM: NUMBER OF ATOMS
1
ITEM: BOX BOUNDS pp pp pp
0 64.80
0 64.80
0 64.80
ITEM: ATOMS id type x y z
3497 2 11.34 1.62 4.86
ITEM: TIMESTEP
254
ITEM: NUMBER OF ATOMS
1
ITEM: BOX BOUNDS pp pp pp
0 64.80
0 64.80
0 64.80
ITEM: ATOMS id type x y z
3497 2 9.72 3.24 3.24
ITEM: TIMESTEP
255
ITEM: NUMBER OF ATOMS
1
ITEM: BOX BOUNDS pp pp pp
0 64.80
0 64.80
0 64.80
ITEM: ATOMS id type x y z
3497 2 11.34 1.62 4.86
ITEM: TIMESTEP
256
ITEM: NUMBER OF ATOMS
1
ITEM: BOX BOUNDS pp pp pp
0 64.80
0 64.80
0 64.80
ITEM: ATOMS id type x y z
3497 2 9.72 3.24 6.48
ITEM: TIMESTEP
257
ITEM: NUMBER OF ATOMS
1
ITEM: BOX BOUNDS pp pp pp
0 64.80
0 64.80
0 64.80
ITEM: ATOMS id type x y z
3497 2 11.34 4.86 8.10
ITEM: TIMESTEP
258
ITEM: NUMBER OF ATOMS
1
ITEM: BOX BOUNDS pp pp pp
0 64.80
0 64.80
0 64.80
ITEM: ATOMS id type x y z
3497 2 12.96 6.48 6.48
ITEM: TIMESTEP
259
ITEM: NUMBER OF ATOMS
1
ITEM: BOX BOUNDS pp pp pp
0 64.80
0 64.80
0 64.80
ITEM: ATOMS id type x y z
3497 2 14.58 8.10 4.86
ITEM: TIMESTEP
260
ITEM: NUMBER OF ATOMS
1
ITEM: BOX BOUNDS pp pp pp
0 64.80
0 64.80
0 64.80
ITEM: ATOMS id type x y z
3497 2 16.20 6.48 3.24
ITEM: TIMESTEP
261
ITEM: NUMBER OF ATOMS
1
ITEM: BOX BOUNDS pp pp pp
0 64.80
0 64.80
0 64.80
ITEM: ATOMS id type x y z
3497 2 14.58 8.10 1.62
ITEM: TIMESTEP
262
ITEM: NUMBER OF ATOMS
1
ITEM: BOX BOUNDS pp pp pp
0 64.80
0 64.80
0 64.80
ITEM: ATOMS id type x y z
3497 2 12.96 9.72 3.24
ITEM: TIMESTEP
263
ITEM: NUMBER OF ATOMS
1
ITEM: BOX BOUNDS pp pp pp
0 64.80
0 64.80
0 64.80
ITEM: ATOMS id type x y z
3497 2 11.34 8.10 4.86
ITEM: TIMESTEP
264
ITEM: NUMBER OF ATOMS
1
ITEM: BOX BOUNDS pp pp pp
0 64.80
0 64.80
0 64.80
ITEM: ATOMS id type x y z
3497 2 9.72 9.72 6.48
ITEM: TIMESTEP
265
ITEM: NUMBER OF ATOMS
1
ITEM: BOX BOUNDS pp pp pp
0 64.80
0 64.80
0 64.80
ITEM: ATOMS id type x y z
3497 2 11.34 11.34 8.10
ITEM: TIMESTEP
266
ITEM: NUMBER OF ATOMS
1
ITEM: BOX BOUNDS pp pp pp
0 64.80
0 64.80
0 64.80
ITEM: ATOMS id type x y z
3497 2 9.72 12.96 6.48
ITEM: TIMESTEP
267
ITEM: NUMBER OF ATOMS
1
ITEM: BOX BOUNDS pp pp pp
0 64.80
0 64.80
0 64.80
ITEM: ATOMS id type x y z
3497 2 11.34 11.34 8.10
ITEM: TIMESTEP
268
ITEM: NUMBER OF ATOMS
1
ITEM: BOX BOUNDS pp pp pp
0 64.80
0 64.80
0 64.80
ITEM: ATOMS id type x y z
3497 2 9.72 9.72 6.48
ITEM: TIMESTEP
269
ITEM: NUMBER OF ATOMS
1
ITEM: BOX BOUNDS pp pp pp
0 64.80
0 64.80
0 64.80
ITEM: ATOMS id type x y z
3497 2 8.10 8.10 4.86
ITEM: TIMESTEP
270
ITEM: NUMBER OF ATOMS
1
ITEM: BOX BOUNDS pp pp pp
0 64.80
0 64.80
0 64.80
ITEM: ATOMS id type x y z
3497 2 9.72 6.48 3.24
ITEM: TIMESTEP
271
ITEM: NUMBER OF ATOMS
1
ITEM: BOX BOUNDS pp pp pp
0 64.80
0 64.80
0 64.80
ITEM: ATOMS id type x y z
3497 2 8.10 8.10 4.86
ITEM: TIMESTEP
272
ITEM: NUMBER OF ATOMS
1
ITEM: BOX BOUNDS pp pp pp
0 64.80
0 64.80
0 64.80
ITEM: ATOMS id type x y z
3497 2 6.48 9.72 6.48
ITEM: TIMESTEP
273
ITEM: NUMBER OF ATOMS
1
ITEM: BOX BOUNDS pp pp pp
0 64.80
0 64.80
0 64.80
ITEM: ATOMS id type x y z
3497 2 8.10 8.10 4.86
ITEM: TIMESTEP
274
ITEM: NUMBER OF ATOMS
1
ITEM: BOX BOUNDS pp pp pp
0 64.80
0 64.80
0 64.80
ITEM: ATOMS id type x y z
3497 2 9.72 6.48 3.24
ITEM: TIMESTEP
275
ITEM: NUMBER OF ATOMS
1
ITEM: BOX BOUNDS pp pp pp
0 64.80
0 64.80
0 64.80
ITEM: ATOMS id type x y z
3497 2 11.34 8.10 4.86
ITEM: TIMESTEP
276
ITEM: NUMBER OF ATOMS
1
ITEM: BOX BOUNDS pp pp pp
0 64.80
0 64.80
0 64.80
ITEM: ATOMS id type x y z
3497 2 9.72 6.48 3.24
ITEM: TIMESTEP
277
ITEM: NUMBER OF ATOMS
1
ITEM: BOX BOUNDS pp pp pp
0 64.80
0 64.80
0 64.80
ITEM: ATOMS id type x y z
3497 2 8.10 8.10 4.86
ITEM: TIMESTEP
278
ITEM: NUMBER OF ATOMS
1
ITEM: BOX BOUNDS pp pp pp
0 64.80
0 64.80
0 64.80
ITEM: ATOMS id type x y z
3497 2 6.48 9.72 6.48
ITEM: TIMESTEP
279
ITEM: NUMBER OF ATOMS
1
ITEM: BOX BOUNDS pp pp pp
0 64.80
0 64.80
0 64.80
ITEM: ATOMS id type x y z
3497 2 4.86 11.34 4.86
ITEM: TIMESTEP
280
ITEM: NUMBER OF ATOMS
1
ITEM: BOX BOUNDS pp pp pp
0 64.80
0 64.80
0 64.80
ITEM: ATOMS id type x y z
3497 2 3.24 9.72 6.48
ITEM: TIMESTEP
281
ITEM: NUMBER OF ATOMS
1
ITEM: BOX BOUNDS pp pp pp
0 64.80
0 64.80
0 64.80
ITEM: ATOMS id type x y z
3497 2 4.86 11.34 4.86
ITEM: TIMESTEP
282
ITEM: NUMBER OF ATOMS
1
ITEM: BOX BOUNDS pp pp pp
0 64.80
0 64.80
0 64.80
ITEM: ATOMS id type x y z
3497 2 3.24 9.72 6.48
ITEM: TIMESTEP
283
ITEM: NUMBER OF ATOMS
1
ITEM: BOX BOUNDS pp pp pp
0 64.80
0 64.80
0 64.80
ITEM: ATOMS id type x y z
3497 2 4.86 11.34 4.86
ITEM: TIMESTEP
284
ITEM: NUMBER OF ATOMS
1
ITEM: BOX BOUNDS pp pp pp
0 64.80
0 64.80
0 64.80
ITEM: ATOMS id type x y z
3497 2 6.48 9.72 6.48
ITEM: TIMESTEP
285
ITEM: NUMBER OF ATOMS
1
ITEM: BOX BOUNDS pp pp pp
0 64.80
0 64.80
0 64.80
ITEM: ATOMS id type x y z
3497 2 8.10 8.10 4.86
ITEM: TIMESTEP
286
ITEM: NUMBER OF ATOMS
1
ITEM: BOX BOUNDS pp pp pp
0 64.80
0 64.80
0 64.80
ITEM: ATOMS id type x y z
3497 2 9.72 9.72 6.48
ITEM: TIMESTEP
287
ITEM: NUMBER OF ATOMS
1
ITEM: BOX BOUNDS pp pp pp
0 64.80
0 64.80
0 64.80
ITEM: ATOMS id type x y z
3497 2 11.34 8.10 8.10
ITEM: TIMESTEP
288
ITEM: NUMBER OF ATOMS
1
ITEM: BOX BOUNDS pp pp pp
0 64.80
0 64.80
0 64.80
ITEM: ATOMS id type x y z
3497 2 9.72 6.48 6.48
ITEM: TIMESTEP
289
ITEM: NUMBER OF ATOMS
1
ITEM: BOX BOUNDS pp pp pp
0 64.80
0 64.80
0 64.80
ITEM: ATOMS id type x y z
3497 2 8.10 8.10 4.86
ITEM: TIMESTEP
290
ITEM: NUMBER OF ATOMS
1
ITEM: BOX BOUNDS pp pp pp
0 64.80
0 64.80
0 64.80
ITEM: ATOMS id type x y z
3497 2 6.48 6.48 6.48
ITEM: TIMESTEP
291
ITEM: NUMBER OF ATOMS
1
ITEM: BOX BOUNDS pp pp pp
0 64.80
0 64.80
0 64.80
ITEM: ATOMS id type x y z
3497 2 4.86 8.10 8.10
ITEM: TIMESTEP
292
ITEM: NUMBER OF ATOMS
1
ITEM: BOX BOUNDS pp pp pp
0 64.80
0 64.80
0 64.80
ITEM: ATOMS id type x y z
3497 2 3.24 9.72 6.48
ITEM: TIMESTEP
293
ITEM: NUMBER OF ATOMS
1
ITEM: BOX BOUNDS pp pp pp
0 64.80
0 64.80
0 64.80
ITEM: ATOMS id type x y z
3497 2 1.62 8.10 4.86
ITEM: TIMESTEP
294
ITEM: NUMBER OF ATOMS
1
ITEM: BOX BOUNDS pp pp pp
0 64.80
0 64.80
0 64.80
ITEM: ATOMS id type x y z
3497 2 3.24 9.72 6.48
ITEM: TIMESTEP
295
ITEM: NUMBER OF ATOMS
1
ITEM: BOX BOUNDS pp pp pp
0 64.80
0 64.80
0 64.80
ITEM: ATOMS id type x y z
3497 2 1.62 11.34 4.86
ITEM: TIMESTEP
296
ITEM: NUMBER OF ATOMS
1
ITEM: BOX BOUNDS pp pp pp
0 64.80
0 64.80
0 64.80
ITEM: ATOMS id type x y z
3497 2 3.24 9.72 6.48
ITEM: TIMESTEP
297
ITEM: NUMBER OF ATOMS
1
ITEM: BOX BOUNDS pp pp pp
0 64.80
0 64.80
0 64.80
ITEM: ATOMS id type x y z
3497 2 4.86 11.34 4.86
ITEM: TIMESTEP
298
ITEM: NUMBER OF ATOMS
1
ITEM: BOX BOUNDS pp pp pp
0 64.80
0 64.80
0 64.80
ITEM: ATOMS id type x y z
3497 2 3.24 9.72 6.48
ITEM: TIMESTEP
299
ITEM: NUMBER OF ATOMS
1
ITEM: BOX BOUNDS pp pp pp
0 64.80
0 64.80
0 64.80
ITEM: ATOMS id type x y z
3497 2 4.86 11.34 8.10
ITEM: TIMESTEP
300
ITEM: NUMBER OF ATOMS
1
ITEM: BOX BOUNDS pp pp pp
0 64.80
0 64.80
0 64.80
ITEM: ATOMS id type x y z
3497 2 6.48 9.72 9.72
ITEM: TIMESTEP
301
ITEM: NUMBER OF ATOMS
1
ITEM: BOX BOUNDS pp pp pp
0 64.80
0 64.80
0 64.80
ITEM: ATOMS id type x y z
3497 2 8.10 8.10 8.10
ITEM: TIMESTEP
302
ITEM: NUMBER OF ATOMS
1
ITEM: BOX BOUNDS pp pp pp
0 64.80
0 64.80
0 64.80
ITEM: ATOMS id type x y z
3497 2 9.72 9.72 6.48
ITEM: TIMESTEP
303
ITEM: NUMBER OF ATOMS
1
ITEM: BOX BOUNDS pp pp pp
0 64.80
0 64.80
0 64.80
ITEM: ATOMS id type x y z
3497 2 8.10 8.10 8.10
ITEM: TIMESTEP
304
ITEM: NUMBER OF ATOMS
1
ITEM: BOX BOUNDS pp pp pp
0 64.80
0 64.80
0 64.80
ITEM: ATOMS id type x y z
3497 2 6.48 9.72 9.72
ITEM: TIMESTEP
305
ITEM: NUMBER OF ATOMS
1
ITEM: BOX BOUNDS pp pp pp
0 64.80
0 64.80
0 64.80
ITEM: ATOMS id type x y z
3497 2 8.10 8.10 8.10
ITEM: TIMESTEP
306
ITEM: NUMBER OF ATOMS
1
ITEM: BOX BOUNDS pp pp pp
0 64.80
0 64.80
0 64.80
ITEM: ATOMS id type x y z
3497 2 6.48 9.72 6.48
ITEM: TIMESTEP
307
ITEM: NUMBER OF ATOMS
1
ITEM: BOX BOUNDS pp pp pp
0 64.80
0 64.80
0 64.80
ITEM: ATOMS id type x y z
3497 2 8.10 8.10 4.86
ITEM: TIMESTEP
308
ITEM: NUMBER OF ATOMS
1
ITEM: BOX BOUNDS pp pp pp
0 64.80
0 64.80
0 64.80
ITEM: ATOMS id type x y z
3497 2 9.72 6.48 3.24
ITEM: TIMESTEP
309
ITEM: NUMBER OF ATOMS
1
ITEM: BOX BOUNDS pp pp pp
0 64.80
0 64.80
0 64.80
ITEM: ATOMS id type x y z
3497 2 8.10 4.86 4.86
ITEM: TIMESTEP
310
ITEM: NUMBER OF ATOMS
1
ITEM: BOX BOUNDS pp pp pp
0 64.80
0 64.80
0 64.80
ITEM: ATOMS id type x y z
3497 2 9.72 3.24 3.24
ITEM: TIMESTEP
311
ITEM: NUMBER OF ATOMS
1
ITEM: BOX BOUNDS pp pp pp
0 64.80
0 64.80
0 64.80
ITEM: ATOMS id type x y z
3497 2 8.10 4.86 4.86
ITEM: TIMESTEP
312
ITEM: NUMBER OF ATOMS
1
ITEM: BOX BOUNDS pp pp pp
0 64.80
0 64.80
0 64.80
ITEM: ATOMS id type x y z
3497 2 9.72 6.48 6.48
ITEM: TIMESTEP
313
ITEM: NUMBER OF ATOMS
1
ITEM: BOX BOUNDS pp pp pp
0 64.80
0 64.80
0 64.80
ITEM: ATOMS id type x y z
3497 2 8.10 4.86 4.86
ITEM: TIMESTEP
314
ITEM: NUMBER OF ATOMS
1
ITEM: BOX BOUNDS pp pp pp
0 64.80
0 64.80
0 64.80
ITEM: ATOMS id type x y z
3497 2 6.48 6.48 3.24
ITEM: TIMESTEP
315
ITEM: NUMBER OF ATOMS
1
ITEM: BOX BOUNDS pp pp pp
0 64.80
0 64.80
0 64.80
ITEM: ATOMS id type x y z
3497 2 8.10 4.86 4.86
ITEM: TIMESTEP
316
ITEM: NUMBER OF ATOMS
1
ITEM: BOX BOUNDS pp pp pp
0 64.80
0 64.80
0 64.80
ITEM: ATOMS id type x y z
3497 2 9.72 3.24 3.24
ITEM: TIMESTEP
317
ITEM: NUMBER OF ATOMS
1
ITEM: BOX BOUNDS pp pp pp
0 64.80
0 64.80
0 64.80
ITEM: ATOMS id type x y z
3497 2 8.10 4.86 4.86
ITEM: TIMESTEP
318
ITEM: NUMBER OF ATOMS
1
ITEM: BOX BOUNDS pp pp pp
0 64.80
0 64.80
0 64.80
ITEM: ATOMS id type x y z
3497 2 6.48 6.48 3.24
ITEM: TIMESTEP
319
ITEM: NUMBER OF ATOMS
1
ITEM: BOX BOUNDS pp pp pp
0 64.80
0 64.80
0 64.80
ITEM: ATOMS id type x y z
3497 2 8.10 4.86 4.86
ITEM: TIMESTEP
320
ITEM: NUMBER OF ATOMS
1
ITEM: BOX BOUNDS pp pp pp
0 64.80
0 64.80
0 64.80
ITEM: ATOMS id type x y z
3497 2 6.48 6.48 3.24
ITEM: TIMESTEP
321
ITEM: NUMBER OF ATOMS
1
ITEM: BOX BOUNDS pp pp pp
0 64.80
0 64.80
0 64.80
ITEM: ATOMS id type x y z
3497 2 8.10 4.86 4.86
ITEM: TIMESTEP
322
ITEM: NUMBER OF ATOMS
1
ITEM: BOX BOUNDS pp pp pp
0 64.80
0 64.80
0 64.80
ITEM: ATOMS id type x y z
3497 2 6.48 6.48 3.24
ITEM: TIMESTEP
323
ITEM: NUMBER OF ATOMS
1
ITEM: BOX BOUNDS pp pp pp
0 64.80
0 64.80
0 64.80
ITEM: ATOMS id type x y z
3497 2 4.86 4.86 1.62
ITEM: TIMESTEP
324
ITEM: NUMBER OF ATOMS
1
ITEM: BOX BOUNDS pp pp pp
0 64.80
0 64.80
0 64.80
ITEM: ATOMS id type x y z
3497 2 6.48 3.24 -0.00
ITEM: TIMESTEP
325
ITEM: NUMBER OF ATOMS
1
ITEM: BOX BOUNDS pp pp pp
0 64.80
0 64.80
0 64.80
ITEM: ATOMS id type x y z
3497 2 4.86 1.62 -1.62
ITEM: TIMESTEP
326
ITEM: NUMBER OF ATOMS
1
ITEM: BOX BOUNDS pp pp pp
0 64.80
0 64.80
0 64.80
ITEM: ATOMS id type x y z
3497 2 6.48 3.24 -0.00
ITEM: TIMESTEP
327
ITEM: NUMBER OF ATOMS
1
ITEM: BOX BOUNDS pp pp pp
0 64.80
0 64.80
0 64.80
ITEM: ATOMS id type x y z
3497 2 4.86 1.62 -1.62
ITEM: TIMESTEP
328
ITEM: NUMBER OF ATOMS
1
ITEM: BOX BOUNDS pp pp pp
0 64.80
0 64.80
0 64.80
ITEM: ATOMS id type x y z
3497 2 6.48 3.24 -0.00
ITEM: TIMESTEP
329
ITEM: NUMBER OF ATOMS
1
ITEM: BOX BOUNDS pp pp pp
0 64.80
0 64.80
0 64.80
ITEM: ATOMS id type x y z
3497 2 4.86 1.62 -1.62
ITEM: TIMESTEP
330
ITEM: NUMBER OF ATOMS
1
ITEM: BOX BOUNDS pp pp pp
0 64.80
0 64.80
0 64.80
ITEM: ATOMS id type x y z
3497 2 6.48 3.24 -0.00
ITEM: TIMESTEP
331
ITEM: NUMBER OF ATOMS
1
ITEM: BOX BOUNDS pp pp pp
0 64.80
0 64.80
0 64.80
ITEM: ATOMS id type x y z
3497 2 4.86 1.62 -1.62
ITEM: TIMESTEP
332
ITEM: NUMBER OF ATOMS
1
ITEM: BOX BOUNDS pp pp pp
0 64.80
0 64.80
0 64.80
ITEM: ATOMS id type x y z
3497 2 3.24 3.24 -3.24
ITEM: TIMESTEP
333
ITEM: NUMBER OF ATOMS
1
ITEM: BOX BOUNDS pp pp pp
0 64.80
0 64.80
0 64.80
ITEM: ATOMS id type x y z
3497 2 1.62 4.86 -4.86
ITEM: TIMESTEP
334
ITEM: NUMBER OF ATOMS
1
ITEM: BOX BOUNDS pp pp pp
0 64.80
0 64.80
0 64.80
ITEM: ATOMS id type x y z
3497 2 3.24 3.24 -6.48
ITEM: TIMESTEP
335
ITEM: NUMBER OF ATOMS
1
ITEM: BOX BOUNDS pp pp pp
0 64.80
0 64.80
0 64.80
ITEM: ATOMS id type x y z
3497 2 1.62 4.86 -4.86
ITEM: TIMESTEP
336
ITEM: NUMBER OF ATOMS
1
ITEM: BOX BOUNDS pp pp pp
0 64.80
0 64.80
0 64.80
ITEM: ATOMS id type x y z
3497 2 3.24 3.24 -6.48
ITEM: TIMESTEP
337
ITEM: NUMBER OF ATOMS
1
ITEM: BOX BOUNDS pp pp pp
0 64.80
0 64.80
0 64.80
ITEM: ATOMS id type x y z
3497 2 1.62 4.86 -4.86
ITEM: TIMESTEP
338
ITEM: NUMBER OF ATOMS
1
ITEM: BOX BOUNDS pp pp pp
0 64.80
0 64.80
0 64.80
ITEM: ATOMS id type x y z
3497 2 -0.00 6.48 -3.24
ITEM: TIMESTEP
339
ITEM: NUMBER OF ATOMS
1
ITEM: BOX BOUNDS pp pp pp
0 64.80
0 64.80
0 64.80
ITEM: ATOMS id type x y z
3497 2 1.62 4.86 -4.86
ITEM: TIMESTEP
340
ITEM: NUMBER OF ATOMS
1
ITEM: BOX BOUNDS pp pp pp
0 64.80
0 64.80
0 64.80
ITEM: ATOMS id type x y z
3497 2 -0.00 6.48 -3.24
ITEM: TIMESTEP
341
ITEM: NUMBER OF ATOMS
1
ITEM: BOX BOUNDS pp pp pp
0 64.80
0 64.80
0 64.80
ITEM: ATOMS id type x y z
3497 2 1.62 4.86 -4.86
ITEM: TIMESTEP
342
ITEM: NUMBER OF ATOMS
1
ITEM: BOX BOUNDS pp pp pp
0 64.80
0 64.80
0 64.80
ITEM: ATOMS id type x y z
3497 2 -0.00 6.48 -3.24
ITEM: TIMESTEP
343
ITEM: NUMBER OF ATOMS
1
ITEM: BOX BOUNDS pp pp pp
0 64.80
0 64.80
0 64.80
ITEM: ATOMS id type x y z
3497 2 1.62 4.86 -4.86
ITEM: TIMESTEP
344
ITEM: NUMBER OF ATOMS
1
ITEM: BOX BOUNDS pp pp pp
0 64.80
0 64.80
0 64.80
ITEM: ATOMS id type x y z
3497 2 3.24 3.24 -3.24
ITEM: TIMESTEP
345
ITEM: NUMBER OF ATOMS
1
ITEM: BOX BOUNDS pp pp pp
0 64.80
0 64.80
0 64.80
ITEM: ATOMS id type x y z
3497 2 4.86 1.62 -1.62
ITEM: TIMESTEP
346
ITEM: NUMBER OF ATOMS
1
ITEM: BOX BOUNDS pp pp pp
0 64.80
0 64.80
0 64.80
ITEM: ATOMS id type x y z
3497 2 6.48 3.24 -0.00
ITEM: TIMESTEP
347
ITEM: NUMBER OF ATOMS
1
ITEM: BOX BOUNDS pp pp pp
0 64.80
0 64.80
0 64.80
ITEM: ATOMS id type x y z
3497 2 4.86 4.86 1.62
ITEM: TIMESTEP
348
ITEM: NUMBER OF ATOMS
1
ITEM: BOX BOUNDS pp pp pp
0 64.80
0 64.80
0 64.80
ITEM: ATOMS id type x y z
3497 2 6.48 3.24 -0.00
ITEM: TIMESTEP
349
ITEM: NUMBER OF ATOMS
1
ITEM: BOX BOUNDS pp pp pp
0 64.80
0 64.80
0 64.80
ITEM: ATOMS id type x y z
3497 2 8.10 4.86 -1.62
ITEM: TIMESTEP
350
ITEM: NUMBER OF ATOMS
1
ITEM: BOX BOUNDS pp pp pp
0 64.80
0 64.80
0 64.80
ITEM: ATOMS id type x y z
3497 2 6.48 3.24 -0.00
ITEM: TIMESTEP
351
ITEM: NUMBER OF ATOMS
1
ITEM: BOX BOUNDS pp pp pp
0 64.80
0 64.80
0 64.80
ITEM: ATOMS id type x y z
3497 2 4.86 4.86 1.62
ITEM: TIMESTEP
352
ITEM: NUMBER OF ATOMS
1
ITEM: BOX BOUNDS pp pp pp
0 64.80
0 64.80
0 64.80
ITEM: ATOMS id type x y z
3497 2 6.48 3.24 -0.00
ITEM: TIMESTEP
353
ITEM: NUMBER OF ATOMS
1
ITEM: BOX BOUNDS pp pp pp
0 64.80
0 64.80
0 64.80
ITEM: ATOMS id type x y z
3497 2 4.86 1.62 -1.62
ITEM: TIMESTEP
354
ITEM: NUMBER OF ATOMS
1
ITEM: BOX BOUNDS pp pp pp
0 64.80
0 64.80
0 64.80
ITEM: ATOMS id type x y z
3497 2 6.48 3.24 -0.00
ITEM: TIMESTEP
355
ITEM: NUMBER OF ATOMS
1
ITEM: BOX BOUNDS pp pp pp
0 64.80
0 64.80
0 64.80
ITEM: ATOMS id type x y z
3497 2 4.86 1.62 -1.62
ITEM: TIMESTEP
356
ITEM: NUMBER OF ATOMS
1
ITEM: BOX BOUNDS pp pp pp
0 64.80
0 64.80
0 64.80
ITEM: ATOMS id type x y z
3497 2 3.24 3.24 -3.24
ITEM: TIMESTEP
357
ITEM: NUMBER OF ATOMS
1
ITEM: BOX BOUNDS pp pp pp
0 64.80
0 64.80
0 64.80
ITEM: ATOMS id type x y z
3497 2 4.86 1.62 -1.62
ITEM: TIMESTEP
358
ITEM: NUMBER OF ATOMS
1
ITEM: BOX BOUNDS pp pp pp
0 64.80
0 64.80
0 64.80
ITEM: ATOMS id type x y z
3497 2 6.48 3.24 -0.00
ITEM: TIMESTEP
359
ITEM: NUMBER OF ATOMS
1
ITEM: BOX BOUNDS pp pp pp
0 64.80
0 64.80
0 64.80
ITEM: ATOMS id type x y z
3497 2 8.10 4.86 1.62
ITEM: TIMESTEP
360
ITEM: NUMBER OF ATOMS
1
ITEM: BOX BOUNDS pp pp pp
0 64.80
0 64.80
0 64.80
ITEM: ATOMS id type x y z
3497 2 6.48 3.24 -0.00
ITEM: TIMESTEP
361
ITEM: NUMBER OF ATOMS
1
ITEM: BOX BOUNDS pp pp pp
0 64.80
0 64.80
0 64.80
ITEM: ATOMS id type x y z
3497 2 8.10 4.86 -1.62
ITEM: TIMESTEP
362
ITEM: NUMBER OF ATOMS
1
ITEM: BOX BOUNDS pp pp pp
0 64.80
0 64.80
0 64.80
ITEM: ATOMS id type x y z
3497 2 6.48 3.24 -0.00
ITEM: TIMESTEP
363
ITEM: NUMBER OF ATOMS
1
ITEM: BOX BOUNDS pp pp pp
0 64.80
0 64.80
0 64.80
ITEM: ATOMS id type x y z
3497 2 4.86 1.62 -1.62
ITEM: TIMESTEP
364
ITEM: NUMBER OF ATOMS
1
ITEM: BOX BOUNDS pp pp pp
0 64.80
0 64.80
0 64.80
ITEM: ATOMS id type x y z
3497 2 6.48 3.24 -0.00
ITEM: TIMESTEP
365
ITEM: NUMBER OF ATOMS
1
ITEM: BOX BOUNDS pp pp pp
0 64.80
0 64.80
0 64.80
ITEM: ATOMS id type x y z
3497 2 8.10 4.86 1.62
ITEM: TIMESTEP
366
ITEM: NUMBER OF ATOMS
1
ITEM: BOX BOUNDS pp pp pp
0 64.80
0 64.80
0 64.80
ITEM: ATOMS id type x y z
3497 2 6.48 3.24 -0.00
ITEM: TIMESTEP
367
ITEM: NUMBER OF ATOMS
1
ITEM: BOX BOUNDS pp pp pp
0 64.80
0 64.80
0 64.80
ITEM: ATOMS id type x y z
3497 2 4.86 1.62 -1.62
ITEM: TIMESTEP
368
ITEM: NUMBER OF ATOMS
1
ITEM: BOX BOUNDS pp pp pp
0 64.80
0 64.80
0 64.80
ITEM: ATOMS id type x y z
3497 2 6.48 3.24 -0.00
ITEM: TIMESTEP
369
ITEM: NUMBER OF ATOMS
1
ITEM: BOX BOUNDS pp pp pp
0 64.80
0 64.80
0 64.80
ITEM: ATOMS id type x y z
3497 2 4.86 1.62 -1.62
ITEM: TIMESTEP
370
ITEM: NUMBER OF ATOMS
1
ITEM: BOX BOUNDS pp pp pp
0 64.80
0 64.80
0 64.80
ITEM: ATOMS id type x y z
3497 2 6.48 3.24 -0.00
ITEM: TIMESTEP
371
ITEM: NUMBER OF ATOMS
1
ITEM: BOX BOUNDS pp pp pp
0 64.80
0 64.80
0 64.80
ITEM: ATOMS id type x y z
3497 2 4.86 1.62 -1.62
ITEM: TIMESTEP
372
ITEM: NUMBER OF ATOMS
1
ITEM: BOX BOUNDS pp pp pp
0 64.80
0 64.80
0 64.80
ITEM: ATOMS id type x y z
3497 2 6.48 3.24 -0.00
ITEM: TIMESTEP
373
ITEM: NUMBER OF ATOMS
1
ITEM: BOX BOUNDS pp pp pp
0 64.80
0 64.80
0 64.80
ITEM: ATOMS id type x y z
3497 2 4.86 1.62 -1.62
ITEM: TIMESTEP
374
ITEM: NUMBER OF ATOMS
1
ITEM: BOX BOUNDS pp pp pp
0 64.80
0 64.80
0 64.80
ITEM: ATOMS id type x y z
3497 2 6.48 3.24 -0.00
ITEM: TIMESTEP
375
ITEM: NUMBER OF ATOMS
1
ITEM: BOX BOUNDS pp pp pp
0 64.80
0 64.80
0 64.80
ITEM: ATOMS id type x y z
3497 2 4.86 1.62 -1.62
ITEM: TIMESTEP
376
ITEM: NUMBER OF ATOMS
1
ITEM: BOX BOUNDS pp pp pp
0 64.80
0 64.80
0 64.80
ITEM: ATOMS id type x y z
3497 2 6.48 3.24 -0.00
ITEM: TIMESTEP
377
ITEM: NUMBER OF ATOMS
1
ITEM: BOX BOUNDS pp pp pp
0 64.80
0 64.80
0 64.80
ITEM: ATOMS id type x y z
3497 2 4.86 1.62 -1.62
ITEM: TIMESTEP
378
ITEM: NUMBER OF ATOMS
1
ITEM: BOX BOUNDS pp pp pp
0 64.80
0 64.80
0 64.80
ITEM: ATOMS id type x y z
3497 2 6.48 3.24 -0.00
ITEM: TIMESTEP
379
ITEM: NUMBER OF ATOMS
1
ITEM: BOX BOUNDS pp pp pp
0 64.80
0 64.80
0 64.80
ITEM: ATOMS id type x y z
3497 2 8.10 4.86 1.62
ITEM: TIMESTEP
380
ITEM: NUMBER OF ATOMS
1
ITEM: BOX BOUNDS pp pp pp
0 64.80
0 64.80
0 64.80
ITEM: ATOMS id type x y z
3497 2 6.48 3.24 -0.00
ITEM: TIMESTEP
381
ITEM: NUMBER OF ATOMS
1
ITEM: BOX BOUNDS pp pp pp
0 64.80
0 64.80
0 64.80
ITEM: ATOMS id type x y z
3497 2 4.86 1.62 -1.62
ITEM: TIMESTEP
382
ITEM: NUMBER OF ATOMS
1
ITEM: BOX BOUNDS pp pp pp
0 64.80
0 64.80
0 64.80
ITEM: ATOMS id type x y z
3497 2 6.48 3.24 -0.00
ITEM: TIMESTEP
383
ITEM: NUMBER OF ATOMS
1
ITEM: BOX BOUNDS pp pp pp
0 64.80
0 64.80
0 64.80
ITEM: ATOMS id type x y z
3497 2 4.86 1.62 -1.62
ITEM: TIMESTEP
384
ITEM: NUMBER OF ATOMS
1
ITEM: BOX BOUNDS pp pp pp
0 64.80
0 64.80
0 64.80
ITEM: ATOMS id type x y z
3497 2 6.48 3.24 -0.00
ITEM: TIMESTEP
385
ITEM: NUMBER OF ATOMS
1
ITEM: BOX BOUNDS pp pp pp
0 64.80
0 64.80
0 64.80
ITEM: ATOMS id type x y z
3497 2 4.86 1.62 -1.62
ITEM: TIMESTEP
386
ITEM: NUMBER OF ATOMS
1
ITEM: BOX BOUNDS pp pp pp
0 64.80
0 64.80
0 64.80
ITEM: ATOMS id type x y z
3497 2 6.48 3.24 -0.00
ITEM: TIMESTEP
387
ITEM: NUMBER OF ATOMS
1
ITEM: BOX BOUNDS pp pp pp
0 64.80
0 64.80
0 64.80
ITEM: ATOMS id type x y z
3497 2 4.86 1.62 -1.62
ITEM: TIMESTEP
388
ITEM: NUMBER OF ATOMS
1
ITEM: BOX BOUNDS pp pp pp
0 64.80
0 64.80
0 64.80
ITEM: ATOMS id type x y z
3497 2 6.48 3.24 -0.00
ITEM: TIMESTEP
389
ITEM: NUMBER OF ATOMS
1
ITEM: BOX BOUNDS pp pp pp
0 64.80
0 64.80
0 64.80
ITEM: ATOMS id type x y z
3497 2 4.86 1.62 -1.62
ITEM: TIMESTEP
390
ITEM: NUMBER OF ATOMS
1
ITEM: BOX BOUNDS pp pp pp
0 64.80
0 64.80
0 64.80
ITEM: ATOMS id type x y z
3497 2 6.48 3.24 -0.00
ITEM: TIMESTEP
391
ITEM: NUMBER OF ATOMS
1
ITEM: BOX BOUNDS pp pp pp
0 64.80
0 64.80
0 64.80
ITEM: ATOMS id type x y z
3497 2 8.10 4.86 -1.62
ITEM: TIMESTEP
392
ITEM: NUMBER OF ATOMS
1
ITEM: BOX BOUNDS pp pp pp
0 64.80
0 64.80
0 64.80
ITEM: ATOMS id type x y z
3497 2 6.48 6.48 -3.24
ITEM: TIMESTEP
393
ITEM: NUMBER OF ATOMS
1
ITEM: BOX BOUNDS pp pp pp
0 64.80
0 64.80
0 64.80
ITEM: ATOMS id type x y z
3497 2 4.86 8.10 -1.62
ITEM: TIMESTEP
394
ITEM: NUMBER OF ATOMS
1
ITEM: BOX BOUNDS pp pp pp
0 64.80
0 64.80
0 64.80
ITEM: ATOMS id type x y z
3497 2 3.24 9.72 -0.00
ITEM: TIMESTEP
395
ITEM: NUMBER OF ATOMS
1
ITEM: BOX BOUNDS pp pp pp
0 64.80
0 64.80
0 64.80
ITEM: ATOMS id type x y z
3497 2 1.62 11.34 1.62
ITEM: TIMESTEP
396
ITEM: NUMBER OF ATOMS
1
ITEM: BOX BOUNDS pp pp pp
0 64.80
0 64.80
0 64.80
ITEM: ATOMS id type x y z
3497 2 -0.00 9.72 3.24
ITEM: TIMESTEP
397
ITEM: NUMBER OF ATOMS
1
ITEM: BOX BOUNDS pp pp pp
0 64.80
0 64.80
0 64.80
ITEM: ATOMS id type x y z
3497 2 -1.62 8.10 1.62
ITEM: TIMESTEP
398
ITEM: NUMBER OF ATOMS
1
ITEM: BOX BOUNDS pp pp pp
0 64.80
0 64.80
0 64.80
ITEM: ATOMS id type x y z
3497 2 -0.00 9.72 3.24
ITEM: TIMESTEP
399
ITEM: NUMBER OF ATOMS
1
ITEM: BOX BOUNDS pp pp pp
0 64.80
0 64.80
0 64.80
ITEM: ATOMS id type x y z
3497 2 -1.62 8.10 1.62
ITEM: TIMESTEP
400
ITEM: NUMBER OF ATOMS
1
ITEM: BOX BOUNDS pp pp pp
0 64.80
0 64.80
0 64.80
ITEM: ATOMS id type x y z
3497 2 -0.00 9.72 3.24
ITEM: TIMESTEP
401
ITEM: NUMBER OF ATOMS
1
ITEM: BOX BOUNDS pp pp pp
0 64.80
0 64.80
0 64.80
ITEM: ATOMS id type x y z
3497 2 -1.62 8.10 1.62
ITEM: TIMESTEP
402
ITEM: NUMBER OF ATOMS
1
ITEM: BOX BOUNDS pp pp pp
0 64.80
0 64.80
0 64.80
ITEM: ATOMS id type x y z
3497 2 -3.24 6.48 3.24
ITEM: TIMESTEP
403
ITEM: NUMBER OF ATOMS
1
ITEM: BOX BOUNDS pp pp pp
0 64.80
0 64.80
0 64.80
ITEM: ATOMS id type x y z
3497 2 -1.62 8.10 1.62
ITEM: TIMESTEP
404
ITEM: NUMBER OF ATOMS
1
ITEM: BOX BOUNDS pp pp pp
0 64.80
0 64.80
0 64.80
ITEM: ATOMS id type x y z
3497 2 -3.24 6.48 3.24
ITEM: TIMESTEP
405
ITEM: NUMBER OF ATOMS
1
ITEM: BOX BOUNDS pp pp pp
0 64.80
0 64.80
0 64.80
ITEM: ATOMS id type x y z
3497 2 -1.62 8.10 1.62
ITEM: TIMESTEP
406
ITEM: NUMBER OF ATOMS
1
ITEM: BOX BOUNDS pp pp pp
0 64.80
0 64.80
0 64.80
ITEM: ATOMS id type x y z
3497 2 -3.24 9.72 -0.00
ITEM: TIMESTEP
407
ITEM: NUMBER OF ATOMS
1
ITEM: BOX BOUNDS pp pp pp
0 64.80
0 64.80
0 64.80
ITEM: ATOMS id type x y z
3497 2 -1.62 8.10 1.62
ITEM: TIMESTEP
408
ITEM: NUMBER OF ATOMS
1
ITEM: BOX BOUNDS pp pp pp
0 64.80
0 64.80
0 64.80
ITEM: ATOMS id type x y z
3497 2 -0.00 9.72 3.24
ITEM: TIMESTEP
409
ITEM: NUMBER OF ATOMS
1
ITEM: BOX BOUNDS pp pp pp
0 64.80
0 64.80
0 64.80
ITEM: ATOMS id type x y z
3497 2 1.62 11.34 1.62
ITEM: TIMESTEP
410
ITEM: NUMBER OF ATOMS
1
ITEM: BOX BOUNDS pp pp pp
0 64.80
0 64.80
0 64.80
ITEM: ATOMS id type x y z
3497 2 -0.00 12.96 -0.00
ITEM: TIMESTEP
411
ITEM: NUMBER OF ATOMS
1
ITEM: BOX BOUNDS pp pp pp
0 64.80
0 64.80
0 64.80
ITEM: ATOMS id type x y z
3497 2 1.62 11.34 1.62
ITEM: TIMESTEP
412
ITEM: NUMBER OF ATOMS
1
ITEM: BOX BOUNDS pp pp pp
0 64.80
0 64.80
0 64.80
ITEM: ATOMS id type x y z
3497 2 -0.00 9.72 3.24
ITEM: TIMESTEP
413
ITEM: NUMBER OF ATOMS
1
ITEM: BOX BOUNDS pp pp pp
0 64.80
0 64.80
0 64.80
ITEM: ATOMS id type x y z
3497 2 1.62 11.34 1.62
ITEM: TIMESTEP
414
ITEM: NUMBER OF ATOMS
1
ITEM: BOX BOUNDS pp pp pp
0 64.80
0 64.80
0 64.80
ITEM: ATOMS id type x y z
3497 2 -0.00 9.72 3.24
ITEM: TIMESTEP
415
ITEM: NUMBER OF ATOMS
1
ITEM: BOX BOUNDS pp pp pp
0 64.80
0 64.80
0 64.80
ITEM: ATOMS id type x y z
3497 2 1.62 11.34 1.62
ITEM: TIMESTEP
416
ITEM: NUMBER OF ATOMS
1
ITEM: BOX BOUNDS pp pp pp
0 64.80
0 64.80
0 64.80
ITEM: ATOMS id type x y z
3497 2 -0.00 9.72 3.24
ITEM: TIMESTEP
417
ITEM: NUMBER OF ATOMS
1
ITEM: BOX BOUNDS pp pp pp
0 64.80
0 64.80
0 64.80
ITEM: ATOMS id type x y z
3497 2 1.62 11.34 1.62
ITEM: TIMESTEP
418
ITEM: NUMBER OF ATOMS
1
ITEM: BOX BOUNDS pp pp pp
0 64.80
0 64.80
0 64.80
ITEM: ATOMS id type x y z
3497 2 -0.00 12.96 -0.00
ITEM: TIMESTEP
419
ITEM: NUMBER OF ATOMS
1
ITEM: BOX BOUNDS pp pp pp
0 64.80
0 64.80
0 64.80
ITEM: ATOMS id type x y z
3497 2 -1.62 14.58 1.62
ITEM: TIMESTEP
420
ITEM: NUMBER OF ATOMS
1
ITEM: BOX BOUNDS pp pp pp
0 64.80
0 64.80
0 64.80
ITEM: ATOMS id type x y z
3497 2 -0.00 12.96 -0.00
ITEM: TIMESTEP
421
ITEM: NUMBER OF ATOMS
1
ITEM: BOX BOUNDS pp pp pp
0 64.80
0 64.80
0 64.80
ITEM: ATOMS id type x y z
3497 2 1.62 11.34 1.62
ITEM: TIMESTEP
422
ITEM: NUMBER OF ATOMS
1
ITEM: BOX BOUNDS pp pp pp
0 64.80
0 64.80
0 64.80
ITEM: ATOMS id type x y z
3497 2 -0.00 9.72 3.24
ITEM: TIMESTEP
423
ITEM: NUMBER OF ATOMS
1
ITEM: BOX BOUNDS pp pp pp
0 64.80
0 64.80
0 64.80
ITEM: ATOMS id type x y z
3497 2 1.62 11.34 1.62
ITEM: TIMESTEP
424
ITEM: NUMBER OF ATOMS
1
ITEM: BOX BOUNDS pp pp pp
0 64.80
0 64.80
0 64.80
ITEM: ATOMS id type x y z
3497 2 -0.00 12.96 -0.00
ITEM: TIMESTEP
425
ITEM: NUMBER OF ATOMS
1
ITEM: BOX BOUNDS pp pp pp
0 64.80
0 64.80
0 64.80
ITEM: ATOMS id type x y z
3497 2 1.62 11.34 1.62
ITEM: TIMESTEP
426
ITEM: NUMBER OF ATOMS
1
ITEM: BOX BOUNDS pp pp pp
0 64.80
0 64.80
0 64.80
ITEM: ATOMS id type x y z
3497 2 -0.00 9.72 3.24
ITEM: TIMESTEP
427
ITEM: NUMBER OF ATOMS
1
ITEM: BOX BOUNDS pp pp pp
0 64.80
0 64.80
0 64.80
ITEM: ATOMS id type x y z
3497 2 1.62 11.34 1.62
ITEM: TIMESTEP
428
ITEM: NUMBER OF ATOMS
1
ITEM: BOX BOUNDS pp pp pp
0 64.80
0 64.80
0 64.80
ITEM: ATOMS id type x y z
3497 2 -0.00 9.72 3.24
ITEM: TIMESTEP
429
ITEM: NUMBER OF ATOMS
1
ITEM: BOX BOUNDS pp pp pp
0 64.80
0 64.80
0 64.80
ITEM: ATOMS id type x y z
3497 2 -1.62 8.10 1.62
ITEM: TIMESTEP
430
ITEM: NUMBER OF ATOMS
1
ITEM: BOX BOUNDS pp pp pp
0 64.80
0 64.80
0 64.80
ITEM: ATOMS id type x y z
3497 2 -0.00 9.72 3.24
ITEM: TIMESTEP
431
ITEM: NUMBER OF ATOMS
1
ITEM: BOX BOUNDS pp pp pp
0 64.80
0 64.80
0 64.80
ITEM: ATOMS id type x y z
3497 2 1.62 11.34 1.62
ITEM: TIMESTEP
432
ITEM: NUMBER OF ATOMS
1
ITEM: BOX BOUNDS pp pp pp
0 64.80
0 64.80
0 64.80
ITEM: ATOMS id type x y z
3497 2 -0.00 12.96 -0.00
ITEM: TIMESTEP
433
ITEM: NUMBER OF ATOMS
1
ITEM: BOX BOUNDS pp pp pp
0 64.80
0 64.80
0 64.80
ITEM: ATOMS id type x y z
3497 2 1.62 11.34 1.62
ITEM: TIMESTEP
434
ITEM: NUMBER OF ATOMS
1
ITEM: BOX BOUNDS pp pp pp
0 64.80
0 64.80
0 64.80
ITEM: ATOMS id type x y z
3497 2 -0.00 9.72 3.24
ITEM: TIMESTEP
435
ITEM: NUMBER OF ATOMS
1
ITEM: BOX BOUNDS pp pp pp
0 64.80
0 64.80
0 64.80
ITEM: ATOMS id type x y z
3497 2 1.62 11.34 1.62
ITEM: TIMESTEP
436
ITEM: NUMBER OF ATOMS
1
ITEM: BOX BOUNDS pp pp pp
0 64.80
0 64.80
0 64.80
ITEM: ATOMS id type x y z
3497 2 -0.00 9.72 3.24
ITEM: TIMESTEP
437
ITEM: NUMBER OF ATOMS
1
ITEM: BOX BOUNDS pp pp pp
0 64.80
0 64.80
0 64.80
ITEM: ATOMS id type x y z
3497 2 -1.62 8.10 1.62
ITEM: TIMESTEP
438
ITEM: NUMBER OF ATOMS
1
ITEM: BOX BOUNDS pp pp pp
0 64.80
0 64.80
0 64.80
ITEM: ATOMS id type x y z
3497 2 -0.00 9.72 3.24
ITEM: TIMESTEP
439
ITEM: NUMBER OF ATOMS
1
ITEM: BOX BOUNDS pp pp pp
0 64.80
0 64.80
0 64.80
ITEM: ATOMS id type x y z
3497 2 1.62 11.34 1.62
ITEM: TIMESTEP
440
ITEM: NUMBER OF ATOMS
1
ITEM: BOX BOUNDS pp pp pp
0 64.80
0 64.80
0 64.80
ITEM: ATOMS id type x y z
3497 2 -0.00 9.72 3.24
ITEM: TIMESTEP
441
ITEM: NUMBER OF ATOMS
1
ITEM: BOX BOUNDS pp pp pp
0 64.80
0 64.80
0 64.80
ITEM: ATOMS id type x y z
3497 2 -1.62 8.10 1.62
ITEM: TIMESTEP
442
ITEM: NUMBER OF ATOMS
1
ITEM: BOX BOUNDS pp pp pp
0 64.80
0 64.80
0 64.80
ITEM: ATOMS id type x y z
3497 2 -0.00 9.72 3.24
ITEM: TIMESTEP
443
ITEM: NUMBER OF ATOMS
1
ITEM: BOX BOUNDS pp pp pp
0 64.80
0 64.80
0 64.80
ITEM: ATOMS id type x y z
3497 2 1.62 11.34 1.62
ITEM: TIMESTEP
444
ITEM: NUMBER OF ATOMS
1
ITEM: BOX BOUNDS pp pp pp
0 64.80
0 64.80
0 64.80
ITEM: ATOMS id type x y z
3497 2 -0.00 9.72 3.24
ITEM: TIMESTEP
445
ITEM: NUMBER OF ATOMS
1
ITEM: BOX BOUNDS pp pp pp
0 64.80
0 64.80
0 64.80
ITEM: ATOMS id type x y z
3497 2 1.62 11.34 1.62
ITEM: TIMESTEP
446
ITEM: NUMBER OF ATOMS
1
ITEM: BOX BOUNDS pp pp pp
0 64.80
0 64.80
0 64.80
ITEM: ATOMS id type x y z
3497 2 -0.00 9.72 3.24
ITEM: TIMESTEP
447
ITEM: NUMBER OF ATOMS
1
ITEM: BOX BOUNDS pp pp pp
0 64.80
0 64.80
0 64.80
ITEM: ATOMS id type x y z
3497 2 -1.62 8.10 1.62
ITEM: TIMESTEP
448
ITEM: NUMBER OF ATOMS
1
ITEM: BOX BOUNDS pp pp pp
0 64.80
0 64.80
0 64.80
ITEM: ATOMS id type x y z
3497 2 -0.00 9.72 3.24
ITEM: TIMESTEP
449
ITEM: NUMBER OF ATOMS
1
ITEM: BOX BOUNDS pp pp pp
0 64.80
0 64.80
0 64.80
ITEM: ATOMS id type x y z
3497 2 -1.62 8.10 1.62
ITEM: TIMESTEP
450
ITEM: NUMBER OF ATOMS
1
ITEM: BOX BOUNDS pp pp pp
0 64.80
0 64.80
0 64.80
ITEM: ATOMS id type x y z
3497 2 -0.00 6.48 -0.00
ITEM: TIMESTEP
451
ITEM: NUMBER OF ATOMS
1
ITEM: BOX BOUNDS pp pp pp
0 64.80
0 64.80
0 64.80
ITEM: ATOMS id type x y z
3497 2 -1.62 8.10 1.62
ITEM: TIMESTEP
452
ITEM: NUMBER OF ATOMS
1
ITEM: BOX BOUNDS pp pp pp
0 64.80
0 64.80
0 64.80
ITEM: ATOMS id type x y z
3497 2 -0.00 9.72 3.24
ITEM: TIMESTEP
453
ITEM: NUMBER OF ATOMS
1
ITEM: BOX BOUNDS pp pp pp
0 64.80
0 64.80
0 64.80
ITEM: ATOMS id type x y z
3497 2 1.62 11.34 1.62
ITEM: TIMESTEP
454
ITEM: NUMBER OF ATOMS
1
ITEM: BOX BOUNDS pp pp pp
0 64.80
0 64.80
0 64.80
ITEM: ATOMS id type x y z
3497 2 -0.00 9.72 3.24
ITEM: TIMESTEP
455
ITEM: NUMBER OF ATOMS
1
ITEM: BOX BOUNDS pp pp pp
0 64.80
0 64.80
0 64.80
ITEM: ATOMS id type x y z
3497 2 1.62 11.34 1.62
ITEM: TIMESTEP
456
ITEM: NUMBER OF ATOMS
1
ITEM: BOX BOUNDS pp pp pp
0 64.80
0 64.80
0 64.80
ITEM: ATOMS id type x y z
3497 2 -0.00 12.96 -0.00
ITEM: TIMESTEP
457
ITEM: NUMBER OF ATOMS
1
ITEM: BOX BOUNDS pp pp pp
0 64.80
0 64.80
0 64.80
ITEM: ATOMS id type x y z
3497 2 -1.62 14.58 1.62
ITEM: TIMESTEP
458
ITEM: NUMBER OF ATOMS
1
ITEM: BOX BOUNDS pp pp pp
0 64.80
0 64.80
0 64.80
ITEM: ATOMS id type x y z
3497 2 -0.00 12.96 -0.00
ITEM: TIMESTEP
459
ITEM: NUMBER OF ATOMS
1
ITEM: BOX BOUNDS pp pp pp
0 64.80
0 64.80
0 64.80
ITEM: ATOMS id type x y z
3497 2 1.62 11.34 1.62
ITEM: TIMESTEP
460
ITEM: NUMBER OF ATOMS
1
ITEM: BOX BOUNDS pp pp pp
0 64.80
0 64.80
0 64.80
ITEM: ATOMS id type x y z
3497 2 -0.00 12.96 -0.00
ITEM: TIMESTEP
461
ITEM: NUMBER OF ATOMS
1
ITEM: BOX BOUNDS pp pp pp
0 64.80
0 64.80
0 64.80
ITEM: ATOMS id type x y z
3497 2 1.62 11.34 1.62
ITEM: TIMESTEP
462
ITEM: NUMBER OF ATOMS
1
ITEM: BOX BOUNDS pp pp pp
0 64.80
0 64.80
0 64.80
ITEM: ATOMS id type x y z
3497 2 -0.00 12.96 -0.00
ITEM: TIMESTEP
463
ITEM: NUMBER OF ATOMS
1
ITEM: BOX BOUNDS pp pp pp
0 64.80
0 64.80
0 64.80
ITEM: ATOMS id type x y z
3497 2 1.62 11.34 1.62
ITEM: TIMESTEP
464
ITEM: NUMBER OF ATOMS
1
ITEM: BOX BOUNDS pp pp pp
0 64.80
0 64.80
0 64.80
ITEM: ATOMS id type x y z
3497 2 -0.00 9.72 3.24
ITEM: TIMESTEP
465
ITEM: NUMBER OF ATOMS
1
ITEM: BOX BOUNDS pp pp pp
0 64.80
0 64.80
0 64.80
ITEM: ATOMS id type x y z
3497 2 -1.62 8.10 1.62
ITEM: TIMESTEP
466
ITEM: NUMBER OF ATOMS
1
ITEM: BOX BOUNDS pp pp pp
0 64.80
0 64.80
0 64.80
ITEM: ATOMS id type x y z
3497 2 -0.00 9.72 3.24
ITEM: TIMESTEP
467
ITEM: NUMBER OF ATOMS
1
ITEM: BOX BOUNDS pp pp pp
0 64.80
0 64.80
0 64.80
ITEM: ATOMS id type x y z
3497 2 -1.62 8.10 1.62
ITEM: TIMESTEP
468
ITEM: NUMBER OF ATOMS
1
ITEM: BOX BOUNDS pp pp pp
0 64.80
0 64.80
0 64.80
ITEM: ATOMS id type x y z
3497 2 -0.00 9.72 3.24
ITEM: TIMESTEP
469
ITEM: NUMBER OF ATOMS
1
ITEM: BOX BOUNDS pp pp pp
0 64.80
0 64.80
0 64.80
ITEM: ATOMS id type x y z
3497 2 1.62 11.34 1.62
ITEM: TIMESTEP
470
ITEM: NUMBER OF ATOMS
1
ITEM: BOX BOUNDS pp pp pp
0 64.80
0 64.80
0 64.80
ITEM: ATOMS id type x y z
3497 2 -0.00 9.72 3.24
ITEM: TIMESTEP
471
ITEM: NUMBER OF ATOMS
1
ITEM: BOX BOUNDS pp pp pp
0 64.80
0 64.80
0 64.80
ITEM: ATOMS id type x y z
3497 2 1.62 11.34 1.62
ITEM: TIMESTEP
472
ITEM: NUMBER OF ATOMS
1
ITEM: BOX BOUNDS pp pp pp
0 64.80
0 64.80
0 64.80
ITEM: ATOMS id type x y z
3497 2 -0.00 9.72 3.24
ITEM: TIMESTEP
473
ITEM: NUMBER OF ATOMS
1
ITEM: BOX BOUNDS pp pp pp
0 64.80
0 64.80
0 64.80
ITEM: ATOMS id type x y z
3497 2 -1.62 8.10 1.62
ITEM: TIMESTEP
474
ITEM: NUMBER OF ATOMS
1
ITEM: BOX BOUNDS pp pp pp
0 64.80
0 64.80
0 64.80
ITEM: ATOMS id type x y z
3497 2 -0.00 6.48 -0.00
ITEM: TIMESTEP
475
ITEM: NUMBER OF ATOMS
1
ITEM: BOX BOUNDS pp pp pp
0 64.80
0 64.80
0 64.80
ITEM: ATOMS id type x y z
3497 2 -1.62 8.10 1.62
ITEM: TIMESTEP
476
ITEM: NUMBER OF ATOMS
1
ITEM: BOX BOUNDS pp pp pp
0 64.80
0 64.80
0 64.80
ITEM: ATOMS id type x y z
3497 2 -0.00 9.72 3.24
ITEM: TIMESTEP
477
ITEM: NUMBER OF ATOMS
1
ITEM: BOX BOUNDS pp pp pp
0 64.80
0 64.80
0 64.80
ITEM: ATOMS id type x y z
3497 2 1.62 11.34 1.62
ITEM: TIMESTEP
478
ITEM: NUMBER OF ATOMS
1
ITEM: BOX BOUNDS pp pp pp
0 64.80
0 64.80
0 64.80
ITEM: ATOMS id type x y z
3497 2 -0.00 12.96 -0.00
ITEM: TIMESTEP
479
ITEM: NUMBER OF ATOMS
1
ITEM: BOX BOUNDS pp pp pp
0 64.80
0 64.80
0 64.80
ITEM: ATOMS id type x y z
3497 2 1.62 11.34 1.62
ITEM: TIMESTEP
480
ITEM: NUMBER OF ATOMS
1
ITEM: BOX BOUNDS pp pp pp
0 64.80
0 64.80
0 64.80
ITEM: ATOMS id type x y z
3497 2 -0.00 12.96 -0.00
ITEM: TIMESTEP
481
ITEM: NUMBER OF ATOMS
1
ITEM: BOX BOUNDS pp pp pp
0 64.80
0 64.80
0 64.80
ITEM: ATOMS id type x y z
3497 2 1.62 11.34 1.62
ITEM: TIMESTEP
482
ITEM: NUMBER OF ATOMS
1
ITEM: BOX BOUNDS pp pp pp
0 64.80
0 64.80
0 64.80
ITEM: ATOMS id type x y z
3497 2 -0.00 9.72 3.24
ITEM: TIMESTEP
483
ITEM: NUMBER OF ATOMS
1
ITEM: BOX BOUNDS pp pp pp
0 64.80
0 64.80
0 64.80
ITEM: ATOMS id type x y z
3497 2 1.62 11.34 1.62
ITEM: TIMESTEP
484
ITEM: NUMBER OF ATOMS
1
ITEM: BOX BOUNDS pp pp pp
0 64.80
0 64.80
0 64.80
ITEM: ATOMS id type x y z
3497 2 -0.00 12.96 -0.00
ITEM: TIMESTEP
485
ITEM: NUMBER OF ATOMS
1
ITEM: BOX BOUNDS pp pp pp
0 64.80
0 64.80
0 64.80
ITEM: ATOMS id type x y z
3497 2 1.62 11.34 1.62
ITEM: TIMESTEP
486
ITEM: NUMBER OF ATOMS
1
ITEM: BOX BOUNDS pp pp pp
0 64.80
0 64.80
0 64.80
ITEM: ATOMS id type x y z
3497 2 3.24 9.72 -0.00
ITEM: TIMESTEP
487
ITEM: NUMBER OF ATOMS
1
ITEM: BOX BOUNDS pp pp pp
0 64.80
0 64.80
0 64.80
ITEM: ATOMS id type x y z
3497 2 1.62 11.34 1.62
ITEM: TIMESTEP
488
ITEM: NUMBER OF ATOMS
1
ITEM: BOX BOUNDS pp pp pp
0 64.80
0 64.80
0 64.80
ITEM: ATOMS id type x y z
3497 2 -0.00 9.72 3.24
ITEM: TIMESTEP
489
ITEM: NUMBER OF ATOMS
1
ITEM: BOX BOUNDS pp pp pp
0 64.80
0 64.80
0 64.80
ITEM: ATOMS id type x y z
3497 2 1.62 11.34 1.62
ITEM: TIMESTEP
490
ITEM: NUMBER OF ATOMS
1
ITEM: BOX BOUNDS pp pp pp
0 64.80
0 64.80
0 64.80
ITEM: ATOMS id type x y z
3497 2 -0.00 12.96 -0.00
ITEM: TIMESTEP
491
ITEM: NUMBER OF ATOMS
1
ITEM: BOX BOUNDS pp pp pp
0 64.80
0 64.80
0 64.80
ITEM: ATOMS id type x y z
3497 2 -1.62 14.58 1.62
ITEM: TIMESTEP
492
ITEM: NUMBER OF ATOMS
1
ITEM: BOX BOUNDS pp pp pp
0 64.80
0 64.80
0 64.80
ITEM: ATOMS id type x y z
3497 2 -0.00 12.96 -0.00
ITEM: TIMESTEP
493
ITEM: NUMBER OF ATOMS
1
ITEM: BOX BOUNDS pp pp pp
0 64.80
0 64.80
0 64.80
ITEM: ATOMS id type x y z
3497 2 1.62 14.58 -1.62
ITEM: TIMESTEP
494
ITEM: NUMBER OF ATOMS
1
ITEM: BOX BOUNDS pp pp pp
0 64.80
0 64.80
0 64.80
ITEM: ATOMS id type x y z
3497 2 -0.00 12.96 -3.24
ITEM: TIMESTEP
495
ITEM: NUMBER OF ATOMS
1
ITEM: BOX BOUNDS pp pp pp
0 64.80
0 64.80
0 64.80
ITEM: ATOMS id type x y z
3497 2 -1.62 11.34 -1.62
ITEM: TIMESTEP
496
ITEM: NUMBER OF ATOMS
1
ITEM: BOX BOUNDS pp pp pp
0 64.80
0 64.80
0 64.80
ITEM: ATOMS id type x y z
3497 2 -0.00 12.96 -0.00
ITEM: TIMESTEP
497
ITEM: NUMBER OF ATOMS
1
ITEM: BOX BOUNDS pp pp pp
0 64.80
0 64.80
0 64.80
ITEM: ATOMS id type x y z
3497 2 1.62 11.34 1.62
ITEM: TIMESTEP
498
ITEM: NUMBER OF ATOMS
1
ITEM: BOX BOUNDS pp pp pp
0 64.80
0 64.80
0 64.80
ITEM: ATOMS id type x y z
3497 2 -0.00 12.96 -0.00
ITEM: TIMESTEP
499
ITEM: NUMBER OF ATOMS
1
ITEM: BOX BOUNDS pp pp pp
0 64.80
0 64.80
0 64.80
ITEM: ATOMS id type x y z
3497 2 -1.62 11.34 -1.62
ITEM: TIMESTEP
500
ITEM: NUMBER OF ATOMS
1
ITEM: BOX BOUNDS pp pp pp
0 64.80
0 64.80
0 64.80
ITEM: ATOMS id type x y z
3497 2 -0.00 12.96 -0.00
ITEM: TIMESTEP
501
ITEM: NUMBER OF ATOMS
1
ITEM: BOX BOUNDS pp pp pp
0 64.80
0 64.80
0 64.80
ITEM: ATOMS id type x y z
3497 2 -1.62 11.34 -1.62
ITEM: TIMESTEP
502
ITEM: NUMBER OF ATOMS
1
ITEM: BOX BOUNDS pp pp pp
0 64.80
0 64.80
0 64.80
ITEM: ATOMS id type x y z
3497 2 -0.00 12.96 -0.00
ITEM: TIMESTEP
503
ITEM: NUMBER OF ATOMS
1
ITEM: BOX BOUNDS pp pp pp
0 64.80
0 64.80
0 64.80
ITEM: ATOMS id type x y z
3497 2 1.62 11.34 1.62
ITEM: TIMESTEP
504
ITEM: NUMBER OF ATOMS
1
ITEM: BOX BOUNDS pp pp pp
0 64.80
0 64.80
0 64.80
ITEM: ATOMS id type x y z
3497 2 -0.00 12.96 -0.00
ITEM: TIMESTEP
505
ITEM: NUMBER OF ATOMS
1
ITEM: BOX BOUNDS pp pp pp
0 64.80
0 64.80
0 64.80
ITEM: ATOMS id type x y z
3497 2 -1.62 14.58 1.62
ITEM: TIMESTEP
506
ITEM: NUMBER OF ATOMS
1
ITEM: BOX BOUNDS pp pp pp
0 64.80
0 64.80
0 64.80
ITEM: ATOMS id type x y z
3497 2 -0.00 12.96 -0.00
ITEM: TIMESTEP
507
ITEM: NUMBER OF ATOMS
1
ITEM: BOX BOUNDS pp pp pp
0 64.80
0 64.80
0 64.80
ITEM: ATOMS id type x y z
3497 2 1.62 11.34 1.62
ITEM: TIMESTEP
508
ITEM: NUMBER OF ATOMS
1
ITEM: BOX BOUNDS pp pp pp
0 64.80
0 64.80
0 64.80
ITEM: ATOMS id type x y z
3497 2 -0.00 9.72 3.24
ITEM: TIMESTEP
509
ITEM: NUMBER OF ATOMS
1
ITEM: BOX BOUNDS pp pp pp
0 64.80
0 64.80
0 64.80
ITEM: ATOMS id type x y z
3497 2 1.62 11.34 1.62
ITEM: TIMESTEP
510
ITEM: NUMBER OF ATOMS
1
ITEM: BOX BOUNDS pp pp pp
0 64.80
0 64.80
0 64.80
ITEM: ATOMS id type x y z
3497 2 -0.00 12.96 -0.00
ITEM: TIMESTEP
511
ITEM: NUMBER OF ATOMS
1
ITEM: BOX BOUNDS pp pp pp
0 64.80
0 64.80
0 64.80
ITEM: ATOMS id type x y z
3497 2 -1.62 11.34 -1.62
ITEM: TIMESTEP
512
ITEM: NUMBER OF ATOMS
1
ITEM: BOX BOUNDS pp pp pp
0 64.80
0 64.80
0 64.80
ITEM: ATOMS id type x y z
3497 2 -0.00 12.96 -0.00
ITEM: TIMESTEP
513
ITEM: NUMBER OF ATOMS
1
ITEM: BOX BOUNDS pp pp pp
0 64.80
0 64.80
0 64.80
ITEM: ATOMS id type x y z
3497 2 -1.62 11.34 -1.62
ITEM: TIMESTEP
514
ITEM: NUMBER OF ATOMS
1
ITEM: BOX BOUNDS pp pp pp
0 64.80
0 64.80
0 64.80
ITEM: ATOMS id type x y z
3497 2 -0.00 12.96 -0.00
ITEM: TIMESTEP
515
ITEM: NUMBER OF ATOMS
1
ITEM: BOX BOUNDS pp pp pp
0 64.80
0 64.80
0 64.80
ITEM: ATOMS id type x y z
3497 2 -1.62 11.34 -1.62
ITEM: TIMESTEP
516
ITEM: NUMBER OF ATOMS
1
ITEM: BOX BOUNDS pp pp pp
0 64.80
0 64.80
0 64.80
ITEM: ATOMS id type x y z
3497 2 -0.00 12.96 -0.00
ITEM: TIMESTEP
517
ITEM: NUMBER OF ATOMS
1
ITEM: BOX BOUNDS pp pp pp
0 64.80
0 64.80
0 64.80
ITEM: ATOMS id type x y z
3497 2 -1.62 11.34 -1.62
ITEM: TIMESTEP
518
ITEM: NUMBER OF ATOMS
1
ITEM: BOX BOUNDS pp pp pp
0 64.80
0 64.80
0 64.80
ITEM: ATOMS id type x y z
3497 2 -0.00 12.96 -0.00
ITEM: TIMESTEP
519
ITEM: NUMBER OF ATOMS
1
ITEM: BOX BOUNDS pp pp pp
0 64.80
0 64.80
0 64.80
ITEM: ATOMS id type x y z
3497 2 -1.62 11.34 -1.62
ITEM: TIMESTEP
520
ITEM: NUMBER OF ATOMS
1
ITEM: BOX BOUNDS pp pp pp
0 64.80
0 64.80
0 64.80
ITEM: ATOMS id type x y z
3497 2 -0.00 12.96 -0.00
ITEM: TIMESTEP
521
ITEM: NUMBER OF ATOMS
1
ITEM: BOX BOUNDS pp pp pp
0 64.80
0 64.80
0 64.80
ITEM: ATOMS id type x y z
3497 2 1.62 11.34 1.62
ITEM: TIMESTEP
522
ITEM: NUMBER OF ATOMS
1
ITEM: BOX BOUNDS pp pp pp
0 64.80
0 64.80
0 64.80
ITEM: ATOMS id type x y z
3497 2 -0.00 12.96 -0.00
ITEM: TIMESTEP
523
ITEM: NUMBER OF ATOMS
1
ITEM: BOX BOUNDS pp pp pp
0 64.80
0 64.80
0 64.80
ITEM: ATOMS id type x y z
3497 2 1.62 11.34 1.62
ITEM: TIMESTEP
524
ITEM: NUMBER OF ATOMS
1
ITEM: BOX BOUNDS pp pp pp
0 64.80
0 64.80
0 64.80
ITEM: ATOMS id type x y z
3497 2 -0.00 12.96 -0.00
ITEM: TIMESTEP
525
ITEM: NUMBER OF ATOMS
1
ITEM: BOX BOUNDS pp pp pp
0 64.80
0 64.80
0 64.80
ITEM: ATOMS id type x y z
3497 2 1.62 14.58 -1.62
ITEM: TIMESTEP
526
ITEM: NUMBER OF ATOMS
1
ITEM: BOX BOUNDS pp pp pp
0 64.80
0 64.80
0 64.80
ITEM: ATOMS id type x y z
3497 2 -0.00 12.96 -0.00
ITEM: TIMESTEP
527
ITEM: NUMBER OF ATOMS
1
ITEM: BOX BOUNDS pp pp pp
0 64.80
0 64.80
0 64.80
ITEM: ATOMS id type x y z
3497 2 -1.62 11.34 -1.62
ITEM: TIMESTEP
528
ITEM: NUMBER OF ATOMS
1
ITEM: BOX BOUNDS pp pp pp
0 64.80
0 64.80
0 64.80
ITEM: ATOMS id type x y z
3497 2 -0.00 12.96 -0.00
ITEM: TIMESTEP
529
ITEM: NUMBER OF ATOMS
1
ITEM: BOX BOUNDS pp pp pp
0 64.80
0 64.80
0 64.80
ITEM: ATOMS id type x y z
3497 2 1.62 11.34 1.62
ITEM: TIMESTEP
530
ITEM: NUMBER OF ATOMS
1
ITEM: BOX BOUNDS pp pp pp
0 64.80
0 64.80
0 64.80
ITEM: ATOMS id type x y z
3497 2 -0.00 12.96 -0.00
ITEM: TIMESTEP
531
ITEM: NUMBER OF ATOMS
1
ITEM: BOX BOUNDS pp pp pp
0 64.80
0 64.80
0 64.80
ITEM: ATOMS id type x y z
3497 2 1.62 11.34 1.62
ITEM: TIMESTEP
532
ITEM: NUMBER OF ATOMS
1
ITEM: BOX BOUNDS pp pp pp
0 64.80
0 64.80
0 64.80
ITEM: ATOMS id type x y z
3497 2 -0.00 9.72 3.24
ITEM: TIMESTEP
533
ITEM: NUMBER OF ATOMS
1
ITEM: BOX BOUNDS pp pp pp
0 64.80
0 64.80
0 64.80
ITEM: ATOMS id type x y z
3497 2 -1.62 8.10 1.62
ITEM: TIMESTEP
534
ITEM: NUMBER OF ATOMS
1
ITEM: BOX BOUNDS pp pp pp
0 64.80
0 64.80
0 64.80
ITEM: ATOMS id type x y z
3497 2 -0.00 9.72 3.24
ITEM: TIMESTEP
535
ITEM: NUMBER OF ATOMS
1
ITEM: BOX BOUNDS pp pp pp
0 64.80
0 64.80
0 64.80
ITEM: ATOMS id type x y z
3497 2 1.62 11.34 1.62
ITEM: TIMESTEP
536
ITEM: NUMBER OF ATOMS
1
ITEM: BOX BOUNDS pp pp pp
0 64.80
0 64.80
0 64.80
ITEM: ATOMS id type x y z
3497 2 -0.00 12.96 -0.00
ITEM: TIMESTEP
537
ITEM: NUMBER OF ATOMS
1
ITEM: BOX BOUNDS pp pp pp
0 64.80
0 64.80
0 64.80
ITEM: ATOMS id type x y z
3497 2 1.62 11.34 1.62
ITEM: TIMESTEP
538
ITEM: NUMBER OF ATOMS
1
ITEM: BOX BOUNDS pp pp pp
0 64.80
0 64.80
0 64.80
ITEM: ATOMS id type x y z
3497 2 -0.00 9.72 3.24
ITEM: TIMESTEP
539
ITEM: NUMBER OF ATOMS
1
ITEM: BOX BOUNDS pp pp pp
0 64.80
0 64.80
0 64.80
ITEM: ATOMS id type x y z
3497 2 1.62 11.34 1.62
ITEM: TIMESTEP
540
ITEM: NUMBER OF ATOMS
1
ITEM: BOX BOUNDS pp pp pp
0 64.80
0 64.80
0 64.80
ITEM: ATOMS id type x y z
3497 2 -0.00 12.96 -0.00
ITEM: TIMESTEP
541
ITEM: NUMBER OF ATOMS
1
ITEM: BOX BOUNDS pp pp pp
0 64.80
0 64.80
0 64.80
ITEM: ATOMS id type x y z
3497 2 1.62 11.34 1.62
ITEM: TIMESTEP
542
ITEM: NUMBER OF ATOMS
1
ITEM: BOX BOUNDS pp pp pp
0 64.80
0 64.80
0 64.80
ITEM: ATOMS id type x y z
3497 2 -0.00 9.72 3.24
ITEM: TIMESTEP
543
ITEM: NUMBER OF ATOMS
1
ITEM: BOX BOUNDS pp pp pp
0 64.80
0 64.80
0 64.80
ITEM: ATOMS id type x y z
3497 2 1.62 11.34 1.62
ITEM: TIMESTEP
544
ITEM: NUMBER OF ATOMS
1
ITEM: BOX BOUNDS pp pp pp
0 64.80
0 64.80
0 64.80
ITEM: ATOMS id type x y z
3497 2 -0.00 12.96 -0.00
ITEM: TIMESTEP
545
ITEM: NUMBER OF ATOMS
1
ITEM: BOX BOUNDS pp pp pp
0 64.80
0 64.80
0 64.80
ITEM: ATOMS id type x y z
3497 2 -1.62 11.34 -1.62
ITEM: TIMESTEP
546
ITEM: NUMBER OF ATOMS
1
ITEM: BOX BOUNDS pp pp pp
0 64.80
0 64.80
0 64.80
ITEM: ATOMS id type x y z
3497 2 -0.00 12.96 -0.00
ITEM: TIMESTEP
547
ITEM: NUMBER OF ATOMS
1
ITEM: BOX BOUNDS pp pp pp
0 64.80
0 64.80
0 64.80
ITEM: ATOMS id type x y z
3497 2 1.62 11.34 1.62
ITEM: TIMESTEP
548
ITEM: NUMBER OF ATOMS
1
ITEM: BOX BOUNDS pp pp pp
0 64.80
0 64.80
0 64.80
ITEM: ATOMS id type x y z
3497 2 -0.00 9.72 3.24
ITEM: TIMESTEP
549
ITEM: NUMBER OF ATOMS
1
ITEM: BOX BOUNDS pp pp pp
0 64.80
0 64.80
0 64.80
ITEM: ATOMS id type x y z
3497 2 1.62 11.34 1.62
ITEM: TIMESTEP
550
ITEM: NUMBER OF ATOMS
1
ITEM: BOX BOUNDS pp pp pp
0 64.80
0 64.80
0 64.80
ITEM: ATOMS id type x y z
3497 2 -0.00 12.96 -0.00
ITEM: TIMESTEP
551
ITEM: NUMBER OF ATOMS
1
ITEM: BOX BOUNDS pp pp pp
0 64.80
0 64.80
0 64.80
ITEM: ATOMS id type x y z
3497 2 -1.62 11.34 -1.62
ITEM: TIMESTEP
552
ITEM: NUMBER OF ATOMS
1
ITEM: BOX BOUNDS pp pp pp
0 64.80
0 64.80
0 64.80
ITEM: ATOMS id type x y z
3497 2 -0.00 12.96 -0.00
ITEM: TIMESTEP
553
ITEM: NUMBER OF ATOMS
1
ITEM: BOX BOUNDS pp pp pp
0 64.80
0 64.80
0 64.80
ITEM: ATOMS id type x y z
3497 2 -1.62 14.58 1.62
ITEM: TIMESTEP
554
ITEM: NUMBER OF ATOMS
1
ITEM: BOX BOUNDS pp pp pp
0 64.80
0 64.80
0 64.80
ITEM: ATOMS id type x y z
3497 2 -0.00 12.96 -0.00
ITEM: TIMESTEP
555
ITEM: NUMBER OF ATOMS
1
ITEM: BOX BOUNDS pp pp pp
0 64.80
0 64.80
0 64.80
ITEM: ATOMS id type x y z
3497 2 -1.62 14.58 1.62
ITEM: TIMESTEP
556
ITEM: NUMBER OF ATOMS
1
ITEM: BOX BOUNDS pp pp pp
0 64.80
0 64.80
0 64.80
ITEM: ATOMS id type x y z
3497 2 -0.00 12.96 -0.00
ITEM: TIMESTEP
557
ITEM: NUMBER OF ATOMS
1
ITEM: BOX BOUNDS pp pp pp
0 64.80
0 64.80
0 64.80
ITEM: ATOMS id type x y z
3497 2 -1.62 14.58 1.62
ITEM: TIMESTEP
558
ITEM: NUMBER OF ATOMS
1
ITEM: BOX BOUNDS pp pp pp
0 64.80
0 64.80
0 64.80
ITEM: ATOMS id type x y z
3497 2 -0.00 12.96 -0.00
ITEM: TIMESTEP
559
ITEM: NUMBER OF ATOMS
1
ITEM: BOX BOUNDS pp pp pp
0 64.80
0 64.80
0 64.80
ITEM: ATOMS id type x y z
3497 2 1.62 11.34 1.62
ITEM: TIMESTEP
560
ITEM: NUMBER OF ATOMS
1
ITEM: BOX BOUNDS pp pp pp
0 64.80
0 64.80
0 64.80
ITEM: ATOMS id type x y z
3497 2 -0.00 12.96 -0.00
ITEM: TIMESTEP
561
ITEM: NUMBER OF ATOMS
1
ITEM: BOX BOUNDS pp pp pp
0 64.80
0 64.80
0 64.80
ITEM: ATOMS id type x y z
3497 2 -1.62 11.34 -1.62
ITEM: TIMESTEP
562
ITEM: NUMBER OF ATOMS
1
ITEM: BOX BOUNDS pp pp pp
0 64.80
0 64.80
0 64.80
ITEM: ATOMS id type x y z
3497 2 -0.00 12.96 -0.00
ITEM: TIMESTEP
563
ITEM: NUMBER OF ATOMS
1
ITEM: BOX BOUNDS pp pp pp
0 64.80
0 64.80
0 64.80
ITEM: ATOMS id type x y z
3497 2 -1.62 11.34 -1.62
ITEM: TIMESTEP
564
ITEM: NUMBER OF ATOMS
1
ITEM: BOX BOUNDS pp pp pp
0 64.80
0 64.80
0 64.80
ITEM: ATOMS id type x y z
3497 2 -0.00 12.96 -0.00
ITEM: TIMESTEP
565
ITEM: NUMBER OF ATOMS
1
ITEM: BOX BOUNDS pp pp pp
0 64.80
0 64.80
0 64.80
ITEM: ATOMS id type x y z
3497 2 -1.62 11.34 -1.62
ITEM: TIMESTEP
566
ITEM: NUMBER OF ATOMS
1
ITEM: BOX BOUNDS pp pp pp
0 64.80
0 64.80
0 64.80
ITEM: ATOMS id type x y z
3497 2 -0.00 12.96 -0.00
ITEM: TIMESTEP
567
ITEM: NUMBER OF ATOMS
1
ITEM: BOX BOUNDS pp pp pp
0 64.80
0 64.80
0 64.80
ITEM: ATOMS id type x y z
3497 2 -1.62 14.58 1.62
ITEM: TIMESTEP
568
ITEM: NUMBER OF ATOMS
1
ITEM: BOX BOUNDS pp pp pp
0 64.80
0 64.80
0 64.80
ITEM: ATOMS id type x y z
3497 2 -0.00 16.20 3.24
ITEM: TIMESTEP
569
ITEM: NUMBER OF ATOMS
1
ITEM: BOX BOUNDS pp pp pp
0 64.80
0 64.80
0 64.80
ITEM: ATOMS id type x y z
3497 2 -1.62 14.58 1.62
ITEM: TIMESTEP
570
ITEM: NUMBER OF ATOMS
1
ITEM: BOX BOUNDS pp pp pp
0 64.80
0 64.80
0 64.80
ITEM: ATOMS id type x y z
3497 2 -0.00 12.96 -0.00
ITEM: TIMESTEP
571
ITEM: NUMBER OF ATOMS
1
ITEM: BOX BOUNDS pp pp pp
0 64.80
0 64.80
0 64.80
ITEM: ATOMS id type x y z
3497 2 -1.62 11.34 -1.62
ITEM: TIMESTEP
572
ITEM: NUMBER OF ATOMS
1
ITEM: BOX BOUNDS pp pp pp
0 64.80
0 64.80
0 64.80
ITEM: ATOMS id type x y z
3497 2 -0.00 12.96 -0.00
ITEM: TIMESTEP
573
ITEM: NUMBER OF ATOMS
1
ITEM: BOX BOUNDS pp pp pp
0 64.80
0 64.80
0 64.80
ITEM: ATOMS id type x y z
3497 2 -1.62 14.58 1.62
ITEM: TIMESTEP
574
ITEM: NUMBER OF ATOMS
1
ITEM: BOX BOUNDS pp pp pp
0 64.80
0 64.80
0 64.80
ITEM: ATOMS id type x y z
3497 2 -0.00 12.96 -0.00
ITEM: TIMESTEP
575
ITEM: NUMBER OF ATOMS
1
ITEM: BOX BOUNDS pp pp pp
0 64.80
0 64.80
0 64.80
ITEM: ATOMS id type x y z
3497 2 -1.62 11.34 -1.62
ITEM: TIMESTEP
576
ITEM: NUMBER OF ATOMS
1
ITEM: BOX BOUNDS pp pp pp
0 64.80
0 64.80
0 64.80
ITEM: ATOMS id type x y z
3497 2 -0.00 12.96 -0.00
ITEM: TIMESTEP
577
ITEM: NUMBER OF ATOMS
1
ITEM: BOX BOUNDS pp pp pp
0 64.80
0 64.80
0 64.80
ITEM: ATOMS id type x y z
3497 2 -1.62 11.34 -1.62
ITEM: TIMESTEP
578
ITEM: NUMBER OF ATOMS
1
ITEM: BOX BOUNDS pp pp pp
0 64.80
0 64.80
0 64.80
ITEM: ATOMS id type x y z
3497 2 -0.00 12.96 -0.00
ITEM: TIMESTEP
579
ITEM: NUMBER OF ATOMS
1
ITEM: BOX BOUNDS pp pp pp
0 64.80
0 64.80
0 64.80
ITEM: ATOMS id type x y z
3497 2 -1.62 11.34 -1.62
ITEM: TIMESTEP
580
ITEM: NUMBER OF ATOMS
1
ITEM: BOX BOUNDS pp pp pp
0 64.80
0 64.80
0 64.80
ITEM: ATOMS id type x y z
3497 2 -0.00 12.96 -0.00
ITEM: TIMESTEP
581
ITEM: NUMBER OF ATOMS
1
ITEM: BOX BOUNDS pp pp pp
0 64.80
0 64.80
0 64.80
ITEM: ATOMS id type x y z
3497 2 1.62 11.34 1.62
ITEM: TIMESTEP
582
ITEM: NUMBER OF ATOMS
1
ITEM: BOX BOUNDS pp pp pp
0 64.80
0 64.80
0 64.80
ITEM: ATOMS id type x y z
3497 2 -0.00 12.96 -0.00
ITEM: TIMESTEP
583
ITEM: NUMBER OF ATOMS
1
ITEM: BOX BOUNDS pp pp pp
0 64.80
0 64.80
0 64.80
ITEM: ATOMS id type x y z
3497 2 1.62 11.34 1.62
ITEM: TIMESTEP
584
ITEM: NUMBER OF ATOMS
1
ITEM: BOX BOUNDS pp pp pp
0 64.80
0 64.80
0 64.80
ITEM: ATOMS id type x y z
3497 2 -0.00 12.96 -0.00
ITEM: TIMESTEP
585
ITEM: NUMBER OF ATOMS
1
ITEM: BOX BOUNDS pp pp pp
0 64.80
0 64.80
0 64.80
ITEM: ATOMS id type x y z
3497 2 -1.62 11.34 -1.62
ITEM: TIMESTEP
586
ITEM: NUMBER OF ATOMS
1
ITEM: BOX BOUNDS pp pp pp
0 64.80
0 64.80
0 64.80
ITEM: ATOMS id type x y z
3497 2 -0.00 12.96 -0.00
ITEM: TIMESTEP
587
ITEM: NUMBER OF ATOMS
1
ITEM: BOX BOUNDS pp pp pp
0 64.80
0 64.80
0 64.80
ITEM: ATOMS id type x y z
3497 2 -1.62 11.34 -1.62
ITEM: TIMESTEP
588
ITEM: NUMBER OF ATOMS
1
ITEM: BOX BOUNDS pp pp pp
0 64.80
0 64.80
0 64.80
ITEM: ATOMS id type x y z
3497 2 -0.00 12.96 -0.00
ITEM: TIMESTEP
589
ITEM: NUMBER OF ATOMS
1
ITEM: BOX BOUNDS pp pp pp
0 64.80
0 64.80
0 64.80
ITEM: ATOMS id type x y z
3497 2 -1.62 14.58 1.62
ITEM: TIMESTEP
590
ITEM: NUMBER OF ATOMS
1
ITEM: BOX BOUNDS pp pp pp
0 64.80
0 64.80
0 64.80
ITEM: ATOMS id type x y z
3497 2 -0.00 12.96 -0.00
ITEM: TIMESTEP
591
ITEM: NUMBER OF ATOMS
1
ITEM: BOX BOUNDS pp pp pp
0 64.80
0 64.80
0 64.80
ITEM: ATOMS id type x y z
3497 2 1.62 11.34 1.62
ITEM: TIMESTEP
592
ITEM: NUMBER OF ATOMS
1
ITEM: BOX BOUNDS pp pp pp
0 64.80
0 64.80
0 64.80
ITEM: ATOMS id type x y z
3497 2 -0.00 9.72 3.24
ITEM: TIMESTEP
593
ITEM: NUMBER OF ATOMS
1
ITEM: BOX BOUNDS pp pp pp
0 64.80
0 64.80
0 64.80
ITEM: ATOMS id type x y z
3497 2 -1.62 8.10 1.62
ITEM: TIMESTEP
594
ITEM: NUMBER OF ATOMS
1
ITEM: BOX BOUNDS pp pp pp
0 64.80
0 64.80
0 64.80
ITEM: ATOMS id type x y z
3497 2 -0.00 9.72 3.24
ITEM: TIMESTEP
595
ITEM: NUMBER OF ATOMS
1
ITEM: BOX BOUNDS pp pp pp
0 64.80
0 64.80
0 64.80
ITEM: ATOMS id type x y z
3497 2 1.62 11.34 1.62
ITEM: TIMESTEP
596
ITEM: NUMBER OF ATOMS
1
ITEM: BOX BOUNDS pp pp pp
0 64.80
0 64.80
0 64.80
ITEM: ATOMS id type x y z
3497 2 -0.00 12.96 -0.00
ITEM: TIMESTEP
597
ITEM: NUMBER OF ATOMS
1
ITEM: BOX BOUNDS pp pp pp
0 64.80
0 64.80
0 64.80
ITEM: ATOMS id type x y z
3497 2 -1.62 11.34 -1.62
ITEM: TIMESTEP
598
ITEM: NUMBER OF ATOMS
1
ITEM: BOX BOUNDS pp pp pp
0 64.80
0 64.80
0 64.80
ITEM: ATOMS id type x y z
3497 2 -0.00 12.96 -0.00
ITEM: TIMESTEP
599
ITEM: NUMBER OF ATOMS
1
ITEM: BOX BOUNDS pp pp pp
0 64.80
0 64.80
0 64.80
ITEM: ATOMS id type x y z
3497 2 -1.62 11.34 -1.62
ITEM: TIMESTEP
600
ITEM: NUMBER OF ATOMS
1
ITEM: BOX BOUNDS pp pp pp
0 64.80
0 64.80
0 64.80
ITEM: ATOMS id type x y z
3497 2 -0.00 12.96 -0.00
ITEM: TIMESTEP
601
ITEM: NUMBER OF ATOMS
1
ITEM: BOX BOUNDS pp pp pp
0 64.80
0 64.80
0 64.80
ITEM: ATOMS id type x y z
3497 2 -1.62 11.34 -1.62
ITEM: TIMESTEP
602
ITEM: NUMBER OF ATOMS
1
ITEM: BOX BOUNDS pp pp pp
0 64.80
0 64.80
0 64.80
ITEM: ATOMS id type x y z
3497 2 -0.00 12.96 -0.00
ITEM: TIMESTEP
603
ITEM: NUMBER OF ATOMS
1
ITEM: BOX BOUNDS pp pp pp
0 64.80
0 64.80
0 64.80
ITEM: ATOMS id type x y z
3497 2 -1.62 11.34 -1.62
ITEM: TIMESTEP
604
ITEM: NUMBER OF ATOMS
1
ITEM: BOX BOUNDS pp pp pp
0 64.80
0 64.80
0 64.80
ITEM: ATOMS id type x y z
3497 2 -0.00 12.96 -0.00
ITEM: TIMESTEP
605
ITEM: NUMBER OF ATOMS
1
ITEM: BOX BOUNDS pp pp pp
0 64.80
0 64.80
0 64.80
ITEM: ATOMS id type x y z
3497 2 -1.62 14.58 1.62
ITEM: TIMESTEP
606
ITEM: NUMBER OF ATOMS
1
ITEM: BOX BOUNDS pp pp pp
0 64.80
0 64.80
0 64.80
ITEM: ATOMS id type x y z
3497 2 -0.00 16.20 3.24
ITEM: TIMESTEP
607
ITEM: NUMBER OF ATOMS
1
ITEM: BOX BOUNDS pp pp pp
0 64.80
0 64.80
0 64.80
ITEM: ATOMS id type x y z
3497 2 1.62 14.58 4.86
ITEM: TIMESTEP
608
ITEM: NUMBER OF ATOMS
1
ITEM: BOX BOUNDS pp pp pp
0 64.80
0 64.80
0 64.80
ITEM: ATOMS id type x y z
3497 2 3.24 12.96 3.24
ITEM: TIMESTEP
609
ITEM: NUMBER OF ATOMS
1
ITEM: BOX BOUNDS pp pp pp
0 64.80
0 64.80
0 64.80
ITEM: ATOMS id type x y z
3497 2 1.62 11.34 1.62
ITEM: TIMESTEP
610
ITEM: NUMBER OF ATOMS
1
ITEM: BOX BOUNDS pp pp pp
0 64.80
0 64.80
0 64.80
ITEM: ATOMS id type x y z
3497 2 -0.00 12.96 -0.00
ITEM: TIMESTEP
611
ITEM: NUMBER OF ATOMS
1
ITEM: BOX BOUNDS pp pp pp
0 64.80
0 64.80
0 64.80
ITEM: ATOMS id type x y z
3497 2 1.62 11.34 1.62
ITEM: TIMESTEP
612
ITEM: NUMBER OF ATOMS
1
ITEM: BOX BOUNDS pp pp pp
0 64.80
0 64.80
0 64.80
ITEM: ATOMS id type x y z
3497 2 -0.00 9.72 3.24
ITEM: TIMESTEP
613
ITEM: NUMBER OF ATOMS
1
ITEM: BOX BOUNDS pp pp pp
0 64.80
0 64.80
0 64.80
ITEM: ATOMS id type x y z
3497 2 1.62 11.34 1.62
ITEM: TIMESTEP
614
ITEM: NUMBER OF ATOMS
1
ITEM: BOX BOUNDS pp pp pp
0 64.80
0 64.80
0 64.80
ITEM: ATOMS id type x y z
3497 2 -0.00 12.96 -0.00
ITEM: TIMESTEP
615
ITEM: NUMBER OF ATOMS
1
ITEM: BOX BOUNDS pp pp pp
0 64.80
0 64.80
0 64.80
ITEM: ATOMS id type x y z
3497 2 -1.62 11.34 -1.62
ITEM: TIMESTEP
616
ITEM: NUMBER OF ATOMS
1
ITEM: BOX BOUNDS pp pp pp
0 64.80
0 64.80
0 64.80
ITEM: ATOMS id type x y z
3497 2 -0.00 12.96 -0.00
ITEM: TIMESTEP
617
ITEM: NUMBER OF ATOMS
1
ITEM: BOX BOUNDS pp pp pp
0 64.80
0 64.80
0 64.80
ITEM: ATOMS id type x y z
3497 2 1.62 11.34 1.62
ITEM: TIMESTEP
618
ITEM: NUMBER OF ATOMS
1
ITEM: BOX BOUNDS pp pp pp
0 64.80
0 64.80
0 64.80
ITEM: ATOMS id type x y z
3497 2 -0.00 12.96 -0.00
ITEM: TIMESTEP
619
ITEM: NUMBER OF ATOMS
1
ITEM: BOX BOUNDS pp pp pp
0 64.80
0 64.80
0 64.80
ITEM: ATOMS id type x y z
3497 2 1.62 11.34 1.62
ITEM: TIMESTEP
620
ITEM: NUMBER OF ATOMS
1
ITEM: BOX BOUNDS pp pp pp
0 64.80
0 64.80
0 64.80
ITEM: ATOMS id type x y z
3497 2 -0.00 12.96 -0.00
ITEM: TIMESTEP
621
ITEM: NUMBER OF ATOMS
1
ITEM: BOX BOUNDS pp pp pp
0 64.80
0 64.80
0 64.80
ITEM: ATOMS id type x y z
3497 2 1.62 11.34 1.62
ITEM: TIMESTEP
622
ITEM: NUMBER OF ATOMS
1
ITEM: BOX BOUNDS pp pp pp
0 64.80
0 64.80
0 64.80
ITEM: ATOMS id type x y z
3497 2 -0.00 12.96 -0.00
ITEM: TIMESTEP
623
ITEM: NUMBER OF ATOMS
1
ITEM: BOX BOUNDS pp pp pp
0 64.80
0 64.80
0 64.80
ITEM: ATOMS id type x y z
3497 2 1.62 11.34 1.62
ITEM: TIMESTEP
624
ITEM: NUMBER OF ATOMS
1
ITEM: BOX BOUNDS pp pp pp
0 64.80
0 64.80
0 64.80
ITEM: ATOMS id type x y z
3497 2 -0.00 12.96 -0.00
ITEM: TIMESTEP
625
ITEM: NUMBER OF ATOMS
1
ITEM: BOX BOUNDS pp pp pp
0 64.80
0 64.80
0 64.80
ITEM: ATOMS id type x y z
3497 2 1.62 11.34 1.62
ITEM: TIMESTEP
626
ITEM: NUMBER OF ATOMS
1
ITEM: BOX BOUNDS pp pp pp
0 64.80
0 64.80
0 64.80
ITEM: ATOMS id type x y z
3497 2 -0.00 9.72 3.24
ITEM: TIMESTEP
627
ITEM: NUMBER OF ATOMS
1
ITEM: BOX BOUNDS pp pp pp
0 64.80
0 64.80
0 64.80
ITEM: ATOMS id type x y z
3497 2 -1.62 8.10 1.62
ITEM: TIMESTEP
628
ITEM: NUMBER OF ATOMS
1
ITEM: BOX BOUNDS pp pp pp
0 64.80
0 64.80
0 64.80
ITEM: ATOMS id type x y z
3497 2 -0.00 9.72 3.24
ITEM: TIMESTEP
629
ITEM: NUMBER OF ATOMS
1
ITEM: BOX BOUNDS pp pp pp
0 64.80
0 64.80
0 64.80
ITEM: ATOMS id type x y z
3497 2 1.62 11.34 1.62
ITEM: TIMESTEP
630
ITEM: NUMBER OF ATOMS
1
ITEM: BOX BOUNDS pp pp pp
0 64.80
0 64.80
0 64.80
ITEM: ATOMS id type x y z
3497 2 -0.00 12.96 -0.00
ITEM: TIMESTEP
631
ITEM: NUMBER OF ATOMS
1
ITEM: BOX BOUNDS pp pp pp
0 64.80
0 64.80
0 64.80
ITEM: ATOMS id type x y z
3497 2 1.62 11.34 1.62
ITEM: TIMESTEP
632
ITEM: NUMBER OF ATOMS
1
ITEM: BOX BOUNDS pp pp pp
0 64.80
0 64.80
0 64.80
ITEM: ATOMS id type x y z
3497 2 -0.00 12.96 -0.00
ITEM: TIMESTEP
633
ITEM: NUMBER OF ATOMS
1
ITEM: BOX BOUNDS pp pp pp
0 64.80
0 64.80
0 64.80
ITEM: ATOMS id type x y z
3497 2 1.62 11.34 1.62
ITEM: TIMESTEP
634
ITEM: NUMBER OF ATOMS
1
ITEM: BOX BOUNDS pp pp pp
0 64.80
0 64.80
0 64.80
ITEM: ATOMS id type x y z
3497 2 -0.00 12.96 -0.00
ITEM: TIMESTEP
635
ITEM: NUMBER OF ATOMS
1
ITEM: BOX BOUNDS pp pp pp
0 64.80
0 64.80
0 64.80
ITEM: ATOMS id type x y z
3497 2 1.62 11.34 1.62
ITEM: TIMESTEP
636
ITEM: NUMBER OF ATOMS
1
ITEM: BOX BOUNDS pp pp pp
0 64.80
0 64.80
0 64.80
ITEM: ATOMS id type x y z
3497 2 -0.00 12.96 -0.00
ITEM: TIMESTEP
637
ITEM: NUMBER OF ATOMS
1
ITEM: BOX BOUNDS pp pp pp
0 64.80
0 64.80
0 64.80
ITEM: ATOMS id type x y z
3497 2 1.62 11.34 1.62
ITEM: TIMESTEP
638
ITEM: NUMBER OF ATOMS
1
ITEM: BOX BOUNDS pp pp pp
0 64.80
0 64.80
0 64.80
ITEM: ATOMS id type x y z
3497 2 -0.00 12.96 -0.00
ITEM: TIMESTEP
639
ITEM: NUMBER OF ATOMS
1
ITEM: BOX BOUNDS pp pp pp
0 64.80
0 64.80
0 64.80
ITEM: ATOMS id type x y z
3497 2 1.62 11.34 1.62
ITEM: TIMESTEP
640
ITEM: NUMBER OF ATOMS
1
ITEM: BOX BOUNDS pp pp pp
0 64.80
0 64.80
0 64.80
ITEM: ATOMS id type x y z
3497 2 -0.00 9.72 3.24
ITEM: TIMESTEP
641
ITEM: NUMBER OF ATOMS
1
ITEM: BOX BOUNDS pp pp pp
0 64.80
0 64.80
0 64.80
ITEM: ATOMS id type x y z
3497 2 1.62 11.34 1.62
ITEM: TIMESTEP
642
ITEM: NUMBER OF ATOMS
1
ITEM: BOX BOUNDS pp pp pp
0 64.80
0 64.80
0 64.80
ITEM: ATOMS id type x y z
3497 2 -0.00 12.96 -0.00
ITEM: TIMESTEP
643
ITEM: NUMBER OF ATOMS
1
ITEM: BOX BOUNDS pp pp pp
0 64.80
0 64.80
0 64.80
ITEM: ATOMS id type x y z
3497 2 -1.62 14.58 1.62
ITEM: TIMESTEP
644
ITEM: NUMBER OF ATOMS
1
ITEM: BOX BOUNDS pp pp pp
0 64.80
0 64.80
0 64.80
ITEM: ATOMS id type x y z
3497 2 -0.00 12.96 -0.00
ITEM: TIMESTEP
645
ITEM: NUMBER OF ATOMS
1
ITEM: BOX BOUNDS pp pp pp
0 64.80
0 64.80
0 64.80
ITEM: ATOMS id type x y z
3497 2 1.62 11.34 1.62
ITEM: TIMESTEP
646
ITEM: NUMBER OF ATOMS
1
ITEM: BOX BOUNDS pp pp pp
0 64.80
0 64.80
0 64.80
ITEM: ATOMS id type x y z
3497 2 -0.00 9.72 3.24
ITEM: TIMESTEP
647
ITEM: NUMBER OF ATOMS
1
ITEM: BOX BOUNDS pp pp pp
0 64.80
0 64.80
0 64.80
ITEM: ATOMS id type x y z
3497 2 1.62 11.34 1.62
ITEM: TIMESTEP
648
ITEM: NUMBER OF ATOMS
1
ITEM: BOX BOUNDS pp pp pp
0 64.80
0 64.80
0 64.80
ITEM: ATOMS id type x y z
3497 2 -0.00 12.96 -0.00
ITEM: TIMESTEP
649
ITEM: NUMBER OF ATOMS
1
ITEM: BOX BOUNDS pp pp pp
0 64.80
0 64.80
0 64.80
ITEM: ATOMS id type x y z
3497 2 1.62 11.34 1.62
ITEM: TIMESTEP
650
ITEM: NUMBER OF ATOMS
1
ITEM: BOX BOUNDS pp pp pp
0 64.80
0 64.80
0 64.80
ITEM: ATOMS id type x y z
3497 2 -0.00 9.72 3.24
ITEM: TIMESTEP
651
ITEM: NUMBER OF ATOMS
1
ITEM: BOX BOUNDS pp pp pp
0 64.80
0 64.80
0 64.80
ITEM: ATOMS id type x y z
3497 2 1.62 11.34 1.62
ITEM: TIMESTEP
652
ITEM: NUMBER OF ATOMS
1
ITEM: BOX BOUNDS pp pp pp
0 64.80
0 64.80
0 64.80
ITEM: ATOMS id type x y z
3497 2 -0.00 12.96 -0.00
ITEM: TIMESTEP
653
ITEM: NUMBER OF ATOMS
1
ITEM: BOX BOUNDS pp pp pp
0 64.80
0 64.80
0 64.80
ITEM: ATOMS id type x y z
3497 2 1.62 11.34 1.62
ITEM: TIMESTEP
654
ITEM: NUMBER OF ATOMS
1
ITEM: BOX BOUNDS pp pp pp
0 64.80
0 64.80
0 64.80
ITEM: ATOMS id type x y z
3497 2 -0.00 12.96 -0.00
ITEM: TIMESTEP
655
ITEM: NUMBER OF ATOMS
1
ITEM: BOX BOUNDS pp pp pp
0 64.80
0 64.80
0 64.80
ITEM: ATOMS id type x y z
3497 2 -1.62 11.34 -1.62
ITEM: TIMESTEP
656
ITEM: NUMBER OF ATOMS
1
ITEM: BOX BOUNDS pp pp pp
0 64.80
0 64.80
0 64.80
ITEM: ATOMS id type x y z
3497 2 -0.00 12.96 -0.00
ITEM: TIMESTEP
657
ITEM: NUMBER OF ATOMS
1
ITEM: BOX BOUNDS pp pp pp
0 64.80
0 64.80
0 64.80
ITEM: ATOMS id type x y z
3497 2 1.62 11.34 1.62
ITEM: TIMESTEP
658
ITEM: NUMBER OF ATOMS
1
ITEM: BOX BOUNDS pp pp pp
0 64.80
0 64.80
0 64.80
ITEM: ATOMS id type x y z
3497 2 -0.00 12.96 -0.00
ITEM: TIMESTEP
659
ITEM: NUMBER OF ATOMS
1
ITEM: BOX BOUNDS pp pp pp
0 64.80
0 64.80
0 64.80
ITEM: ATOMS id type x y z
3497 2 1.62 11.34 1.62
ITEM: TIMESTEP
660
ITEM: NUMBER OF ATOMS
1
ITEM: BOX BOUNDS pp pp pp
0 64.80
0 64.80
0 64.80
ITEM: ATOMS id type x y z
3497 2 -0.00 12.96 -0.00
ITEM: TIMESTEP
661
ITEM: NUMBER OF ATOMS
1
ITEM: BOX BOUNDS pp pp pp
0 64.80
0 64.80
0 64.80
ITEM: ATOMS id type x y z
3497 2 1.62 11.34 1.62
ITEM: TIMESTEP
662
ITEM: NUMBER OF ATOMS
1
ITEM: BOX BOUNDS pp pp pp
0 64.80
0 64.80
0 64.80
ITEM: ATOMS id type x y z
3497 2 -0.00 12.96 -0.00
ITEM: TIMESTEP
663
ITEM: NUMBER OF ATOMS
1
ITEM: BOX BOUNDS pp pp pp
0 64.80
0 64.80
0 64.80
ITEM: ATOMS id type x y z
3497 2 1.62 11.34 1.62
ITEM: TIMESTEP
664
ITEM: NUMBER OF ATOMS
1
ITEM: BOX BOUNDS pp pp pp
0 64.80
0 64.80
0 64.80
ITEM: ATOMS id type x y z
3497 2 -0.00 12.96 -0.00
ITEM: TIMESTEP
665
ITEM: NUMBER OF ATOMS
1
ITEM: BOX BOUNDS pp pp pp
0 64.80
0 64.80
0 64.80
ITEM: ATOMS id type x y z
3497 2 1.62 11.34 1.62
ITEM: TIMESTEP
666
ITEM: NUMBER OF ATOMS
1
ITEM: BOX BOUNDS pp pp pp
0 64.80
0 64.80
0 64.80
ITEM: ATOMS id type x y z
3497 2 -0.00 12.96 -0.00
ITEM: TIMESTEP
667
ITEM: NUMBER OF ATOMS
1
ITEM: BOX BOUNDS pp pp pp
0 64.80
0 64.80
0 64.80
ITEM: ATOMS id type x y z
3497 2 1.62 11.34 1.62
ITEM: TIMESTEP
668
ITEM: NUMBER OF ATOMS
1
ITEM: BOX BOUNDS pp pp pp
0 64.80
0 64.80
0 64.80
ITEM: ATOMS id type x y z
3497 2 -0.00 12.96 -0.00
ITEM: TIMESTEP
669
ITEM: NUMBER OF ATOMS
1
ITEM: BOX BOUNDS pp pp pp
0 64.80
0 64.80
0 64.80
ITEM: ATOMS id type x y z
3497 2 1.62 11.34 1.62
ITEM: TIMESTEP
670
ITEM: NUMBER OF ATOMS
1
ITEM: BOX BOUNDS pp pp pp
0 64.80
0 64.80
0 64.80
ITEM: ATOMS id type x y z
3497 2 -0.00 9.72 3.24
ITEM: TIMESTEP
671
ITEM: NUMBER OF ATOMS
1
ITEM: BOX BOUNDS pp pp pp
0 64.80
0 64.80
0 64.80
ITEM: ATOMS id type x y z
3497 2 1.62 11.34 1.62
ITEM: TIMESTEP
672
ITEM: NUMBER OF ATOMS
1
ITEM: BOX BOUNDS pp pp pp
0 64.80
0 64.80
0 64.80
ITEM: ATOMS id type x y z
3497 2 -0.00 12.96 -0.00
ITEM: TIMESTEP
673
ITEM: NUMBER OF ATOMS
1
ITEM: BOX BOUNDS pp pp pp
0 64.80
0 64.80
0 64.80
ITEM: ATOMS id type x y z
3497 2 1.62 11.34 1.62
ITEM: TIMESTEP
674
ITEM: NUMBER OF ATOMS
1
ITEM: BOX BOUNDS pp pp pp
0 64.80
0 64.80
0 64.80
ITEM: ATOMS id type x y z
3497 2 -0.00 12.96 -0.00
ITEM: TIMESTEP
675
ITEM: NUMBER OF ATOMS
1
ITEM: BOX BOUNDS pp pp pp
0 64.80
0 64.80
0 64.80
ITEM: ATOMS id type x y z
3497 2 1.62 11.34 1.62
ITEM: TIMESTEP
676
ITEM: NUMBER OF ATOMS
1
ITEM: BOX BOUNDS pp pp pp
0 64.80
0 64.80
0 64.80
ITEM: ATOMS id type x y z
3497 2 -0.00 12.96 -0.00
ITEM: TIMESTEP
677
ITEM: NUMBER OF ATOMS
1
ITEM: BOX BOUNDS pp pp pp
0 64.80
0 64.80
0 64.80
ITEM: ATOMS id type x y z
3497 2 1.62 11.34 1.62
ITEM: TIMESTEP
678
ITEM: NUMBER OF ATOMS
1
ITEM: BOX BOUNDS pp pp pp
0 64.80
0 64.80
0 64.80
ITEM: ATOMS id type x y z
3497 2 -0.00 9.72 3.24
ITEM: TIMESTEP
679
ITEM: NUMBER OF ATOMS
1
ITEM: BOX BOUNDS pp pp pp
0 64.80
0 64.80
0 64.80
ITEM: ATOMS id type x y z
3497 2 1.62 11.34 1.62
ITEM: TIMESTEP
680
ITEM: NUMBER OF ATOMS
1
ITEM: BOX BOUNDS pp pp pp
0 64.80
0 64.80
0 64.80
ITEM: ATOMS id type x y z
3497 2 -0.00 12.96 -0.00
ITEM: TIMESTEP
681
ITEM: NUMBER OF ATOMS
1
ITEM: BOX BOUNDS pp pp pp
0 64.80
0 64.80
0 64.80
ITEM: ATOMS id type x y z
3497 2 1.62 11.34 1.62
ITEM: TIMESTEP
682
ITEM: NUMBER OF ATOMS
1
ITEM: BOX BOUNDS pp pp pp
0 64.80
0 64.80
0 64.80
ITEM: ATOMS id type x y z
3497 2 -0.00 9.72 3.24
ITEM: TIMESTEP
683
ITEM: NUMBER OF ATOMS
1
ITEM: BOX BOUNDS pp pp pp
0 64.80
0 64.80
0 64.80
ITEM: ATOMS id type x y z
3497 2 1.62 11.34 1.62
ITEM: TIMESTEP
684
ITEM: NUMBER OF ATOMS
1
ITEM: BOX BOUNDS pp pp pp
0 64.80
0 64.80
0 64.80
ITEM: ATOMS id type x y z
3497 2 -0.00 12.96 -0.00
ITEM: TIMESTEP
685
ITEM: NUMBER OF ATOMS
1
ITEM: BOX BOUNDS pp pp pp
0 64.80
0 64.80
0 64.80
ITEM: ATOMS id type x y z
3497 2 -1.62 11.34 -1.62
ITEM: TIMESTEP
686
ITEM: NUMBER OF ATOMS
1
ITEM: BOX BOUNDS pp pp pp
0 64.80
0 64.80
0 64.80
ITEM: ATOMS id type x y z
3497 2 -0.00 12.96 -0.00
ITEM: TIMESTEP
687
ITEM: NUMBER OF ATOMS
1
ITEM: BOX BOUNDS pp pp pp
0 64.80
0 64.80
0 64.80
ITEM: ATOMS id type x y z
3497 2 1.62 11.34 1.62
ITEM: TIMESTEP
688
ITEM: NUMBER OF ATOMS
1
ITEM: BOX BOUNDS pp pp pp
0 64.80
0 64.80
0 64.80
ITEM: ATOMS id type x y z
3497 2 -0.00 12.96 -0.00
ITEM: TIMESTEP
689
ITEM: NUMBER OF ATOMS
1
ITEM: BOX BOUNDS pp pp pp
0 64.80
0 64.80
0 64.80
ITEM: ATOMS id type x y z
3497 2 -1.62 11.34 -1.62
ITEM: TIMESTEP
690
ITEM: NUMBER OF ATOMS
1
ITEM: BOX BOUNDS pp pp pp
0 64.80
0 64.80
0 64.80
ITEM: ATOMS id type x y z
3497 2 -0.00 12.96 -0.00
ITEM: TIMESTEP
691
ITEM: NUMBER OF ATOMS
1
ITEM: BOX BOUNDS pp pp pp
0 64.80
0 64.80
0 64.80
ITEM: ATOMS id type x y z
3497 2 1.62 11.34 1.62
ITEM: TIMESTEP
692
ITEM: NUMBER OF ATOMS
1
ITEM: BOX BOUNDS pp pp pp
0 64.80
0 64.80
0 64.80
ITEM: ATOMS id type x y z
3497 2 -0.00 12.96 -0.00
ITEM: TIMESTEP
693
ITEM: NUMBER OF ATOMS
1
ITEM: BOX BOUNDS pp pp pp
0 64.80
0 64.80
0 64.80
ITEM: ATOMS id type x y z
3497 2 1.62 11.34 1.62
ITEM: TIMESTEP
694
ITEM: NUMBER OF ATOMS
1
ITEM: BOX BOUNDS pp pp pp
0 64.80
0 64.80
0 64.80
ITEM: ATOMS id type x y z
3497 2 -0.00 9.72 3.24
ITEM: TIMESTEP
695
ITEM: NUMBER OF ATOMS
1
ITEM: BOX BOUNDS pp pp pp
0 64.80
0 64.80
0 64.80
ITEM: ATOMS id type x y z
3497 2 1.62 11.34 1.62
ITEM: TIMESTEP
696
ITEM: NUMBER OF ATOMS
1
ITEM: BOX BOUNDS pp pp pp
0 64.80
0 64.80
0 64.80
ITEM: ATOMS id type x y z
3497 2 -0.00 9.72 3.24
ITEM: TIMESTEP
697
ITEM: NUMBER OF ATOMS
1
ITEM: BOX BOUNDS pp pp pp
0 64.80
0 64.80
0 64.80
ITEM: ATOMS id type x y z
3497 2 1.62 11.34 1.62
ITEM: TIMESTEP
698
ITEM: NUMBER OF ATOMS
1
ITEM: BOX BOUNDS pp pp pp
0 64.80
0 64.80
0 64.80
ITEM: ATOMS id type x y z
3497 2 -0.00 12.96 -0.00
ITEM: TIMESTEP
699
ITEM: NUMBER OF ATOMS
1
ITEM: BOX BOUNDS pp pp pp
0 64.80
0 64.80
0 64.80
ITEM: ATOMS id type x y z
3497 2 -1.62 11.34 -1.62
ITEM: TIMESTEP
700
ITEM: NUMBER OF ATOMS
1
ITEM: BOX BOUNDS pp pp pp
0 64.80
0 64.80
0 64.80
ITEM: ATOMS id type x y z
3497 2 -0.00 12.96 -0.00
ITEM: TIMESTEP
701
ITEM: NUMBER OF ATOMS
1
ITEM: BOX BOUNDS pp pp pp
0 64.80
0 64.80
0 64.80
ITEM: ATOMS id type x y z
3497 2 -1.62 14.58 1.62
ITEM: TIMESTEP
702
ITEM: NUMBER OF ATOMS
1
ITEM: BOX BOUNDS pp pp pp
0 64.80
0 64.80
0 64.80
ITEM: ATOMS id type x y z
3497 2 -0.00 12.96 -0.00
ITEM: TIMESTEP
703
ITEM: NUMBER OF ATOMS
1
ITEM: BOX BOUNDS pp pp pp
0 64.80
0 64.80
0 64.80
ITEM: ATOMS id type x y z
3497 2 1.62 11.34 1.62
ITEM: TIMESTEP
704
ITEM: NUMBER OF ATOMS
1
ITEM: BOX BOUNDS pp pp pp
0 64.80
0 64.80
0 64.80
ITEM: ATOMS id type x y z
3497 2 -0.00 9.72 3.24
ITEM: TIMESTEP
705
ITEM: NUMBER OF ATOMS
1
ITEM: BOX BOUNDS pp pp pp
0 64.80
0 64.80
0 64.80
ITEM: ATOMS id type x y z
3497 2 1.62 11.34 1.62
ITEM: TIMESTEP
706
ITEM: NUMBER OF ATOMS
1
ITEM: BOX BOUNDS pp pp pp
0 64.80
0 64.80
0 64.80
ITEM: ATOMS id type x y z
3497 2 -0.00 12.96 -0.00
ITEM: TIMESTEP
707
ITEM: NUMBER OF ATOMS
1
ITEM: BOX BOUNDS pp pp pp
0 64.80
0 64.80
0 64.80
ITEM: ATOMS id type x y z
3497 2 1.62 11.34 1.62
ITEM: TIMESTEP
708
ITEM: NUMBER OF ATOMS
1
ITEM: BOX BOUNDS pp pp pp
0 64.80
0 64.80
0 64.80
ITEM: ATOMS id type x y z
3497 2 -0.00 12.96 -0.00
ITEM: TIMESTEP
709
ITEM: NUMBER OF ATOMS
1
ITEM: BOX BOUNDS pp pp pp
0 64.80
0 64.80
0 64.80
ITEM: ATOMS id type x y z
3497 2 1.62 11.34 1.62
ITEM: TIMESTEP
710
ITEM: NUMBER OF ATOMS
1
ITEM: BOX BOUNDS pp pp pp
0 64.80
0 64.80
0 64.80
ITEM: ATOMS id type x y z
3497 2 -0.00 12.96 -0.00
ITEM: TIMESTEP
711
ITEM: NUMBER OF ATOMS
1
ITEM: BOX BOUNDS pp pp pp
0 64.80
0 64.80
0 64.80
ITEM: ATOMS id type x y z
3497 2 1.62 11.34 1.62
ITEM: TIMESTEP
712
ITEM: NUMBER OF ATOMS
1
ITEM: BOX BOUNDS pp pp pp
0 64.80
0 64.80
0 64.80
ITEM: ATOMS id type x y z
3497 2 -0.00 9.72 3.24
ITEM: TIMESTEP
713
ITEM: NUMBER OF ATOMS
1
ITEM: BOX BOUNDS pp pp pp
0 64.80
0 64.80
0 64.80
ITEM: ATOMS id type x y z
3497 2 1.62 11.34 1.62
ITEM: TIMESTEP
714
ITEM: NUMBER OF ATOMS
1
ITEM: BOX BOUNDS pp pp pp
0 64.80
0 64.80
0 64.80
ITEM: ATOMS id type x y z
3497 2 -0.00 9.72 3.24
ITEM: TIMESTEP
715
ITEM: NUMBER OF ATOMS
1
ITEM: BOX BOUNDS pp pp pp
0 64.80
0 64.80
0 64.80
ITEM: ATOMS id type x y z
3497 2 1.62 11.34 1.62
ITEM: TIMESTEP
716
ITEM: NUMBER OF ATOMS
1
ITEM: BOX BOUNDS pp pp pp
0 64.80
0 64.80
0 64.80
ITEM: ATOMS id type x y z
3497 2 -0.00 12.96 -0.00
ITEM: TIMESTEP
717
ITEM: NUMBER OF ATOMS
1
ITEM: BOX BOUNDS pp pp pp
0 64.80
0 64.80
0 64.80
ITEM: ATOMS id type x y z
3497 2 1.62 11.34 1.62
ITEM: TIMESTEP
718
ITEM: NUMBER OF ATOMS
1
ITEM: BOX BOUNDS pp pp pp
0 64.80
0 64.80
0 64.80
ITEM: ATOMS id type x y z
3497 2 -0.00 9.72 3.24
ITEM: TIMESTEP
719
ITEM: NUMBER OF ATOMS
1
ITEM: BOX BOUNDS pp pp pp
0 64.80
0 64.80
0 64.80
ITEM: ATOMS id type x y z
3497 2 1.62 11.34 1.62
ITEM: TIMESTEP
720
ITEM: NUMBER OF ATOMS
1
ITEM: BOX BOUNDS pp pp pp
0 64.80
0 64.80
0 64.80
ITEM: ATOMS id type x y z
3497 2 -0.00 12.96 -0.00
ITEM: TIMESTEP
721
ITEM: NUMBER OF ATOMS
1
ITEM: BOX BOUNDS pp pp pp
0 64.80
0 64.80
0 64.80
ITEM: ATOMS id type x y z
3497 2 1.62 11.34 1.62
ITEM: TIMESTEP
722
ITEM: NUMBER OF ATOMS
1
ITEM: BOX BOUNDS pp pp pp
0 64.80
0 64.80
0 64.80
ITEM: ATOMS id type x y z
3497 2 -0.00 12.96 -0.00
ITEM: TIMESTEP
723
ITEM: NUMBER OF ATOMS
1
ITEM: BOX BOUNDS pp pp pp
0 64.80
0 64.80
0 64.80
ITEM: ATOMS id type x y z
3497 2 1.62 14.58 -1.62
ITEM: TIMESTEP
724
ITEM: NUMBER OF ATOMS
1
ITEM: BOX BOUNDS pp pp pp
0 64.80
0 64.80
0 64.80
ITEM: ATOMS id type x y z
3497 2 -0.00 12.96 -0.00
ITEM: TIMESTEP
725
ITEM: NUMBER OF ATOMS
1
ITEM: BOX BOUNDS pp pp pp
0 64.80
0 64.80
0 64.80
ITEM: ATOMS id type x y z
3497 2 1.62 11.34 1.62
ITEM: TIMESTEP
726
ITEM: NUMBER OF ATOMS
1
ITEM: BOX BOUNDS pp pp pp
0 64.80
0 64.80
0 64.80
ITEM: ATOMS id type x y z
3497 2 -0.00 12.96 -0.00
ITEM: TIMESTEP
727
ITEM: NUMBER OF ATOMS
1
ITEM: BOX BOUNDS pp pp pp
0 64.80
0 64.80
0 64.80
ITEM: ATOMS id type x y z
3497 2 1.62 11.34 1.62
ITEM: TIMESTEP
728
ITEM: NUMBER OF ATOMS
1
ITEM: BOX BOUNDS pp pp pp
0 64.80
0 64.80
0 64.80
ITEM: ATOMS id type x y z
3497 2 3.24 9.72 -0.00
ITEM: TIMESTEP
729
ITEM: NUMBER OF ATOMS
1
ITEM: BOX BOUNDS pp pp pp
0 64.80
0 64.80
0 64.80
ITEM: ATOMS id type x y z
3497 2 1.62 11.34 1.62
ITEM: TIMESTEP
730
ITEM: NUMBER OF ATOMS
1
ITEM: BOX BOUNDS pp pp pp
0 64.80
0 64.80
0 64.80
ITEM: ATOMS id type x y z
3497 2 -0.00 9.72 3.24
ITEM: TIMESTEP
731
ITEM: NUMBER OF ATOMS
1
ITEM: BOX BOUNDS pp pp pp
0 64.80
0 64.80
0 64.80
ITEM: ATOMS id type x y z
3497 2 1.62 11.34 1.62
ITEM: TIMESTEP
732
ITEM: NUMBER OF ATOMS
1
ITEM: BOX BOUNDS pp pp pp
0 64.80
0 64.80
0 64.80
ITEM: ATOMS id type x y z
3497 2 -0.00 9.72 3.24
ITEM: TIMESTEP
733
ITEM: NUMBER OF ATOMS
1
ITEM: BOX BOUNDS pp pp pp
0 64.80
0 64.80
0 64.80
ITEM: ATOMS id type x y z
3497 2 -1.62 8.10 1.62
ITEM: TIMESTEP
734
ITEM: NUMBER OF ATOMS
1
ITEM: BOX BOUNDS pp pp pp
0 64.80
0 64.80
0 64.80
ITEM: ATOMS id type x y z
3497 2 -3.24 9.72 -0.00
ITEM: TIMESTEP
735
ITEM: NUMBER OF ATOMS
1
ITEM: BOX BOUNDS pp pp pp
0 64.80
0 64.80
0 64.80
ITEM: ATOMS id type x y z
3497 2 -1.62 8.10 1.62
ITEM: TIMESTEP
736
ITEM: NUMBER OF ATOMS
1
ITEM: BOX BOUNDS pp pp pp
0 64.80
0 64.80
0 64.80
ITEM: ATOMS id type x y z
3497 2 -0.00 9.72 3.24
ITEM: TIMESTEP
737
ITEM: NUMBER OF ATOMS
1
ITEM: BOX BOUNDS pp pp pp
0 64.80
0 64.80
0 64.80
ITEM: ATOMS id type x y z
3497 2 1.62 11.34 1.62
ITEM: TIMESTEP
738
ITEM: NUMBER OF ATOMS
1
ITEM: BOX BOUNDS pp pp pp
0 64.80
0 64.80
0 64.80
ITEM: ATOMS id type x y z
3497 2 -0.00 12.96 -0.00
ITEM: TIMESTEP
739
ITEM: NUMBER OF ATOMS
1
ITEM: BOX BOUNDS pp pp pp
0 64.80
0 64.80
0 64.80
ITEM: ATOMS id type x y z
3497 2 -1.62 11.34 -1.62
ITEM: TIMESTEP
740
ITEM: NUMBER OF ATOMS
1
ITEM: BOX BOUNDS pp pp pp
0 64.80
0 64.80
0 64.80
ITEM: ATOMS id type x y z
3497 2 -0.00 12.96 -0.00
ITEM: TIMESTEP
741
ITEM: NUMBER OF ATOMS
1
ITEM: BOX BOUNDS pp pp pp
0 64.80
0 64.80
0 64.80
ITEM: ATOMS id type x y z
3497 2 1.62 11.34 1.62
ITEM: TIMESTEP
742
ITEM: NUMBER OF ATOMS
1
ITEM: BOX BOUNDS pp pp pp
0 64.80
0 64.80
0 64.80
ITEM: ATOMS id type x y z
3497 2 -0.00 9.72 3.24
ITEM: TIMESTEP
743
ITEM: NUMBER OF ATOMS
1
ITEM: BOX BOUNDS pp pp pp
0 64.80
0 64.80
0 64.80
ITEM: ATOMS id type x y z
3497 2 1.62 11.34 1.62
ITEM: TIMESTEP
744
ITEM: NUMBER OF ATOMS
1
ITEM: BOX BOUNDS pp pp pp
0 64.80
0 64.80
0 64.80
ITEM: ATOMS id type x y z
3497 2 -0.00 12.96 -0.00
ITEM: TIMESTEP
745
ITEM: NUMBER OF ATOMS
1
ITEM: BOX BOUNDS pp pp pp
0 64.80
0 64.80
0 64.80
ITEM: ATOMS id type x y z
3497 2 1.62 11.34 1.62
ITEM: TIMESTEP
746
ITEM: NUMBER OF ATOMS
1
ITEM: BOX BOUNDS pp pp pp
0 64.80
0 64.80
0 64.80
ITEM: ATOMS id type x y z
3497 2 -0.00 12.96 -0.00
ITEM: TIMESTEP
747
ITEM: NUMBER OF ATOMS
1
ITEM: BOX BOUNDS pp pp pp
0 64.80
0 64.80
0 64.80
ITEM: ATOMS id type x y z
3497 2 1.62 11.34 1.62
ITEM: TIMESTEP
748
ITEM: NUMBER OF ATOMS
1
ITEM: BOX BOUNDS pp pp pp
0 64.80
0 64.80
0 64.80
ITEM: ATOMS id type x y z
3497 2 -0.00 12.96 -0.00
ITEM: TIMESTEP
749
ITEM: NUMBER OF ATOMS
1
ITEM: BOX BOUNDS pp pp pp
0 64.80
0 64.80
0 64.80
ITEM: ATOMS id type x y z
3497 2 1.62 11.34 1.62
ITEM: TIMESTEP
750
ITEM: NUMBER OF ATOMS
1
ITEM: BOX BOUNDS pp pp pp
0 64.80
0 64.80
0 64.80
ITEM: ATOMS id type x y z
3497 2 -0.00 9.72 3.24
ITEM: TIMESTEP
751
ITEM: NUMBER OF ATOMS
1
ITEM: BOX BOUNDS pp pp pp
0 64.80
0 64.80
0 64.80
ITEM: ATOMS id type x y z
3497 2 1.62 11.34 1.62
ITEM: TIMESTEP
752
ITEM: NUMBER OF ATOMS
1
ITEM: BOX BOUNDS pp pp pp
0 64.80
0 64.80
0 64.80
ITEM: ATOMS id type x y z
3497 2 -0.00 9.72 3.24
ITEM: TIMESTEP
753
ITEM: NUMBER OF ATOMS
1
ITEM: BOX BOUNDS pp pp pp
0 64.80
0 64.80
0 64.80
ITEM: ATOMS id type x y z
3497 2 -1.62 8.10 1.62
ITEM: TIMESTEP
754
ITEM: NUMBER OF ATOMS
1
ITEM: BOX BOUNDS pp pp pp
0 64.80
0 64.80
0 64.80
ITEM: ATOMS id type x y z
3497 2 -0.00 9.72 3.24
ITEM: TIMESTEP
755
ITEM: NUMBER OF ATOMS
1
ITEM: BOX BOUNDS pp pp pp
0 64.80
0 64.80
0 64.80
ITEM: ATOMS id type x y z
3497 2 1.62 11.34 1.62
ITEM: TIMESTEP
756
ITEM: NUMBER OF ATOMS
1
ITEM: BOX BOUNDS pp pp pp
0 64.80
0 64.80
0 64.80
ITEM: ATOMS id type x y z
3497 2 -0.00 12.96 -0.00
ITEM: TIMESTEP
757
ITEM: NUMBER OF ATOMS
1
ITEM: BOX BOUNDS pp pp pp
0 64.80
0 64.80
0 64.80
ITEM: ATOMS id type x y z
3497 2 -1.62 11.34 -1.62
ITEM: TIMESTEP
758
ITEM: NUMBER OF ATOMS
1
ITEM: BOX BOUNDS pp pp pp
0 64.80
0 64.80
0 64.80
ITEM: ATOMS id type x y z
3497 2 -0.00 12.96 -0.00
ITEM: TIMESTEP
759
ITEM: NUMBER OF ATOMS
1
ITEM: BOX BOUNDS pp pp pp
0 64.80
0 64.80
0 64.80
ITEM: ATOMS id type x y z
3497 2 -1.62 11.34 -1.62
ITEM: TIMESTEP
760
ITEM: NUMBER OF ATOMS
1
ITEM: BOX BOUNDS pp pp pp
0 64.80
0 64.80
0 64.80
ITEM: ATOMS id type x y z
3497 2 -0.00 12.96 -0.00
ITEM: TIMESTEP
761
ITEM: NUMBER OF ATOMS
1
ITEM: BOX BOUNDS pp pp pp
0 64.80
0 64.80
0 64.80
ITEM: ATOMS id type x y z
3497 2 -1.62 14.58 1.62
ITEM: TIMESTEP
762
ITEM: NUMBER OF ATOMS
1
ITEM: BOX BOUNDS pp pp pp
0 64.80
0 64.80
0 64.80
ITEM: ATOMS id type x y z
3497 2 -0.00 12.96 -0.00
ITEM: TIMESTEP
763
ITEM: NUMBER OF ATOMS
1
ITEM: BOX BOUNDS pp pp pp
0 64.80
0 64.80
0 64.80
ITEM: ATOMS id type x y z
3497 2 1.62 11.34 1.62
ITEM: TIMESTEP
764
ITEM: NUMBER OF ATOMS
1
ITEM: BOX BOUNDS pp pp pp
0 64.80
0 64.80
0 64.80
ITEM: ATOMS id type x y z
3497 2 -0.00 12.96 -0.00
ITEM: TIMESTEP
765
ITEM: NUMBER OF ATOMS
1
ITEM: BOX BOUNDS pp pp pp
0 64.80
0 64.80
0 64.80
ITEM: ATOMS id type x y z
3497 2 1.62 11.34 1.62
ITEM: TIMESTEP
766
ITEM: NUMBER OF ATOMS
1
ITEM: BOX BOUNDS pp pp pp
0 64.80
0 64.80
0 64.80
ITEM: ATOMS id type x y z
3497 2 -0.00 12.96 -0.00
ITEM: TIMESTEP
767
ITEM: NUMBER OF ATOMS
1
ITEM: BOX BOUNDS pp pp pp
0 64.80
0 64.80
0 64.80
ITEM: ATOMS id type x y z
3497 2 1.62 11.34 1.62
ITEM: TIMESTEP
768
ITEM: NUMBER OF ATOMS
1
ITEM: BOX BOUNDS pp pp pp
0 64.80
0 64.80
0 64.80
ITEM: ATOMS id type x y z
3497 2 -0.00 12.96 -0.00
ITEM: TIMESTEP
769
ITEM: NUMBER OF ATOMS
1
ITEM: BOX BOUNDS pp pp pp
0 64.80
0 64.80
0 64.80
ITEM: ATOMS id type x y z
3497 2 -1.62 11.34 -1.62
ITEM: TIMESTEP
770
ITEM: NUMBER OF ATOMS
1
ITEM: BOX BOUNDS pp pp pp
0 64.80
0 64.80
0 64.80
ITEM: ATOMS id type x y z
3497 2 -0.00 12.96 -0.00
ITEM: TIMESTEP
771
ITEM: NUMBER OF ATOMS
1
ITEM: BOX BOUNDS pp pp pp
0 64.80
0 64.80
0 64.80
ITEM: ATOMS id type x y z
3497 2 1.62 11.34 1.62
ITEM: TIMESTEP
772
ITEM: NUMBER OF ATOMS
1
ITEM: BOX BOUNDS pp pp pp
0 64.80
0 64.80
0 64.80
ITEM: ATOMS id type x y z
3497 2 -0.00 12.96 -0.00
ITEM: TIMESTEP
773
ITEM: NUMBER OF ATOMS
1
ITEM: BOX BOUNDS pp pp pp
0 64.80
0 64.80
0 64.80
ITEM: ATOMS id type x y z
3497 2 1.62 11.34 1.62
ITEM: TIMESTEP
774
ITEM: NUMBER OF ATOMS
1
ITEM: BOX BOUNDS pp pp pp
0 64.80
0 64.80
0 64.80
ITEM: ATOMS id type x y z
3497 2 -0.00 9.72 3.24
ITEM: TIMESTEP
775
ITEM: NUMBER OF ATOMS
1
ITEM: BOX BOUNDS pp pp pp
0 64.80
0 64.80
0 64.80
ITEM: ATOMS id type x y z
3497 2 1.62 11.34 1.62
ITEM: TIMESTEP
776
ITEM: NUMBER OF ATOMS
1
ITEM: BOX BOUNDS pp pp pp
0 64.80
0 64.80
0 64.80
ITEM: ATOMS id type x y z
3497 2 -0.00 12.96 -0.00
ITEM: TIMESTEP
777
ITEM: NUMBER OF ATOMS
1
ITEM: BOX BOUNDS pp pp pp
0 64.80
0 64.80
0 64.80
ITEM: ATOMS id type x y z
3497 2 1.62 11.34 1.62
ITEM: TIMESTEP
778
ITEM: NUMBER OF ATOMS
1
ITEM: BOX BOUNDS pp pp pp
0 64.80
0 64.80
0 64.80
ITEM: ATOMS id type x y z
3497 2 -0.00 12.96 -0.00
ITEM: TIMESTEP
779
ITEM: NUMBER OF ATOMS
1
ITEM: BOX BOUNDS pp pp pp
0 64.80
0 64.80
0 64.80
ITEM: ATOMS id type x y z
3497 2 1.62 11.34 1.62
ITEM: TIMESTEP
780
ITEM: NUMBER OF ATOMS
1
ITEM: BOX BOUNDS pp pp pp
0 64.80
0 64.80
0 64.80
ITEM: ATOMS id type x y z
3497 2 -0.00 9.72 3.24
ITEM: TIMESTEP
781
ITEM: NUMBER OF ATOMS
1
ITEM: BOX BOUNDS pp pp pp
0 64.80
0 64.80
0 64.80
ITEM: ATOMS id type x y z
3497 2 1.62 11.34 1.62
ITEM: TIMESTEP
782
ITEM: NUMBER OF ATOMS
1
ITEM: BOX BOUNDS pp pp pp
0 64.80
0 64.80
0 64.80
ITEM: ATOMS id type x y z
3497 2 -0.00 12.96 -0.00
ITEM: TIMESTEP
783
ITEM: NUMBER OF ATOMS
1
ITEM: BOX BOUNDS pp pp pp
0 64.80
0 64.80
0 64.80
ITEM: ATOMS id type x y z
3497 2 1.62 11.34 1.62
ITEM: TIMESTEP
784
ITEM: NUMBER OF ATOMS
1
ITEM: BOX BOUNDS pp pp pp
0 64.80
0 64.80
0 64.80
ITEM: ATOMS id type x y z
3497 2 -0.00 12.96 -0.00
ITEM: TIMESTEP
785
ITEM: NUMBER OF ATOMS
1
ITEM: BOX BOUNDS pp pp pp
0 64.80
0 64.80
0 64.80
ITEM: ATOMS id type x y z
3497 2 -1.62 11.34 -1.62
ITEM: TIMESTEP
786
ITEM: NUMBER OF ATOMS
1
ITEM: BOX BOUNDS pp pp pp
0 64.80
0 64.80
0 64.80
ITEM: ATOMS id type x y z
3497 2 -0.00 12.96 -0.00
ITEM: TIMESTEP
787
ITEM: NUMBER OF ATOMS
1
ITEM: BOX BOUNDS pp pp pp
0 64.80
0 64.80
0 64.80
ITEM: ATOMS id type x y z
3497 2 1.62 11.34 1.62
ITEM: TIMESTEP
788
ITEM: NUMBER OF ATOMS
1
ITEM: BOX BOUNDS pp pp pp
0 64.80
0 64.80
0 64.80
ITEM: ATOMS id type x y z
3497 2 -0.00 12.96 -0.00
ITEM: TIMESTEP
789
ITEM: NUMBER OF ATOMS
1
ITEM: BOX BOUNDS pp pp pp
0 64.80
0 64.80
0 64.80
ITEM: ATOMS id type x y z
3497 2 -1.62 11.34 -1.62
ITEM: TIMESTEP
790
ITEM: NUMBER OF ATOMS
1
ITEM: BOX BOUNDS pp pp pp
0 64.80
0 64.80
0 64.80
ITEM: ATOMS id type x y z
3497 2 -0.00 12.96 -0.00
ITEM: TIMESTEP
791
ITEM: NUMBER OF ATOMS
1
ITEM: BOX BOUNDS pp pp pp
0 64.80
0 64.80
0 64.80
ITEM: ATOMS id type x y z
3497 2 1.62 11.34 1.62
ITEM: TIMESTEP
792
ITEM: NUMBER OF ATOMS
1
ITEM: BOX BOUNDS pp pp pp
0 64.80
0 64.80
0 64.80
ITEM: ATOMS id type x y z
3497 2 -0.00 9.72 3.24
ITEM: TIMESTEP
793
ITEM: NUMBER OF ATOMS
1
ITEM: BOX BOUNDS pp pp pp
0 64.80
0 64.80
0 64.80
ITEM: ATOMS id type x y z
3497 2 1.62 11.34 1.62
ITEM: TIMESTEP
794
ITEM: NUMBER OF ATOMS
1
ITEM: BOX BOUNDS pp pp pp
0 64.80
0 64.80
0 64.80
ITEM: ATOMS id type x y z
3497 2 -0.00 12.96 -0.00
ITEM: TIMESTEP
795
ITEM: NUMBER OF ATOMS
1
ITEM: BOX BOUNDS pp pp pp
0 64.80
0 64.80
0 64.80
ITEM: ATOMS id type x y z
3497 2 1.62 11.34 1.62
ITEM: TIMESTEP
796
ITEM: NUMBER OF ATOMS
1
ITEM: BOX BOUNDS pp pp pp
0 64.80
0 64.80
0 64.80
ITEM: ATOMS id type x y z
3497 2 -0.00 12.96 -0.00
ITEM: TIMESTEP
797
ITEM: NUMBER OF ATOMS
1
ITEM: BOX BOUNDS pp pp pp
0 64.80
0 64.80
0 64.80
ITEM: ATOMS id type x y z
3497 2 1.62 11.34 1.62
ITEM: TIMESTEP
798
ITEM: NUMBER OF ATOMS
1
ITEM: BOX BOUNDS pp pp pp
0 64.80
0 64.80
0 64.80
ITEM: ATOMS id type x y z
3497 2 -0.00 9.72 3.24
ITEM: TIMESTEP
799
ITEM: NUMBER OF ATOMS
1
ITEM: BOX BOUNDS pp pp pp
0 64.80
0 64.80
0 64.80
ITEM: ATOMS id type x y z
3497 2 -1.62 8.10 1.62
ITEM: TIMESTEP
800
ITEM: NUMBER OF ATOMS
1
ITEM: BOX BOUNDS pp pp pp
0 64.80
0 64.80
0 64.80
ITEM: ATOMS id type x y z
3497 2 -0.00 9.72 3.24
ITEM: TIMESTEP
801
ITEM: NUMBER OF ATOMS
1
ITEM: BOX BOUNDS pp pp pp
0 64.80
0 64.80
0 64.80
ITEM: ATOMS id type x y z
3497 2 1.62 11.34 1.62
ITEM: TIMESTEP
802
ITEM: NUMBER OF ATOMS
1
ITEM: BOX BOUNDS pp pp pp
0 64.80
0 64.80
0 64.80
ITEM: ATOMS id type x y z
3497 2 -0.00 12.96 -0.00
ITEM: TIMESTEP
803
ITEM: NUMBER OF ATOMS
1
ITEM: BOX BOUNDS pp pp pp
0 64.80
0 64.80
0 64.80
ITEM: ATOMS id type x y z
3497 2 1.62 11.34 1.62
ITEM: TIMESTEP
804
ITEM: NUMBER OF ATOMS
1
ITEM: BOX BOUNDS pp pp pp
0 64.80
0 64.80
0 64.80
ITEM: ATOMS id type x y z
3497 2 -0.00 9.72 3.24
ITEM: TIMESTEP
805
ITEM: NUMBER OF ATOMS
1
ITEM: BOX BOUNDS pp pp pp
0 64.80
0 64.80
0 64.80
ITEM: ATOMS id type x y z
3497 2 -1.62 8.10 1.62
ITEM: TIMESTEP
806
ITEM: NUMBER OF ATOMS
1
ITEM: BOX BOUNDS pp pp pp
0 64.80
0 64.80
0 64.80
ITEM: ATOMS id type x y z
3497 2 -0.00 9.72 3.24
ITEM: TIMESTEP
807
ITEM: NUMBER OF ATOMS
1
ITEM: BOX BOUNDS pp pp pp
0 64.80
0 64.80
0 64.80
ITEM: ATOMS id type x y z
3497 2 -1.62 8.10 1.62
ITEM: TIMESTEP
808
ITEM: NUMBER OF ATOMS
1
ITEM: BOX BOUNDS pp pp pp
0 64.80
0 64.80
0 64.80
ITEM: ATOMS id type x y z
3497 2 -0.00 9.72 3.24
ITEM: TIMESTEP
809
ITEM: NUMBER OF ATOMS
1
ITEM: BOX BOUNDS pp pp pp
0 64.80
0 64.80
0 64.80
ITEM: ATOMS id type x y z
3497 2 -1.62 8.10 1.62
ITEM: TIMESTEP
810
ITEM: NUMBER OF ATOMS
1
ITEM: BOX BOUNDS pp pp pp
0 64.80
0 64.80
0 64.80
ITEM: ATOMS id type x y z
3497 2 -3.24 9.72 -0.00
ITEM: TIMESTEP
811
ITEM: NUMBER OF ATOMS
1
ITEM: BOX BOUNDS pp pp pp
0 64.80
0 64.80
0 64.80
ITEM: ATOMS id type x y z
3497 2 -1.62 11.34 -1.62
ITEM: TIMESTEP
812
ITEM: NUMBER OF ATOMS
1
ITEM: BOX BOUNDS pp pp pp
0 64.80
0 64.80
0 64.80
ITEM: ATOMS id type x y z
3497 2 -0.00 12.96 -0.00
ITEM: TIMESTEP
813
ITEM: NUMBER OF ATOMS
1
ITEM: BOX BOUNDS pp pp pp
0 64.80
0 64.80
0 64.80
ITEM: ATOMS id type x y z
3497 2 1.62 11.34 1.62
ITEM: TIMESTEP
814
ITEM: NUMBER OF ATOMS
1
ITEM: BOX BOUNDS pp pp pp
0 64.80
0 64.80
0 64.80
ITEM: ATOMS id type x y z
3497 2 -0.00 12.96 -0.00
ITEM: TIMESTEP
815
ITEM: NUMBER OF ATOMS
1
ITEM: BOX BOUNDS pp pp pp
0 64.80
0 64.80
0 64.80
ITEM: ATOMS id type x y z
3497 2 1.62 11.34 1.62
ITEM: TIMESTEP
816
ITEM: NUMBER OF ATOMS
1
ITEM: BOX BOUNDS pp pp pp
0 64.80
0 64.80
0 64.80
ITEM: ATOMS id type x y z
3497 2 -0.00 12.96 -0.00
ITEM: TIMESTEP
817
ITEM: NUMBER OF ATOMS
1
ITEM: BOX BOUNDS pp pp pp
0 64.80
0 64.80
0 64.80
ITEM: ATOMS id type x y z
3497 2 1.62 11.34 1.62
ITEM: TIMESTEP
818
ITEM: NUMBER OF ATOMS
1
ITEM: BOX BOUNDS pp pp pp
0 64.80
0 64.80
0 64.80
ITEM: ATOMS id type x y z
3497 2 -0.00 12.96 -0.00
ITEM: TIMESTEP
819
ITEM: NUMBER OF ATOMS
1
ITEM: BOX BOUNDS pp pp pp
0 64.80
0 64.80
0 64.80
ITEM: ATOMS id type x y z
3497 2 1.62 11.34 1.62
ITEM: TIMESTEP
820
ITEM: NUMBER OF ATOMS
1
ITEM: BOX BOUNDS pp pp pp
0 64.80
0 64.80
0 64.80
ITEM: ATOMS id type x y z
3497 2 -0.00 9.72 3.24
ITEM: TIMESTEP
821
ITEM: NUMBER OF ATOMS
1
ITEM: BOX BOUNDS pp pp pp
0 64.80
0 64.80
0 64.80
ITEM: ATOMS id type x y z
3497 2 1.62 11.34 1.62
ITEM: TIMESTEP
822
ITEM: NUMBER OF ATOMS
1
ITEM: BOX BOUNDS pp pp pp
0 64.80
0 64.80
0 64.80
ITEM: ATOMS id type x y z
3497 2 -0.00 12.96 -0.00
ITEM: TIMESTEP
823
ITEM: NUMBER OF ATOMS
1
ITEM: BOX BOUNDS pp pp pp
0 64.80
0 64.80
0 64.80
ITEM: ATOMS id type x y z
3497 2 1.62 11.34 1.62
ITEM: TIMESTEP
824
ITEM: NUMBER OF ATOMS
1
ITEM: BOX BOUNDS pp pp pp
0 64.80
0 64.80
0 64.80
ITEM: ATOMS id type x y z
3497 2 -0.00 12.96 -0.00
ITEM: TIMESTEP
825
ITEM: NUMBER OF ATOMS
1
ITEM: BOX BOUNDS pp pp pp
0 64.80
0 64.80
0 64.80
ITEM: ATOMS id type x y z
3497 2 1.62 11.34 1.62
ITEM: TIMESTEP
826
ITEM: NUMBER OF ATOMS
1
ITEM: BOX BOUNDS pp pp pp
0 64.80
0 64.80
0 64.80
ITEM: ATOMS id type x y z
3497 2 -0.00 9.72 3.24
ITEM: TIMESTEP
827
ITEM: NUMBER OF ATOMS
1
ITEM: BOX BOUNDS pp pp pp
0 64.80
0 64.80
0 64.80
ITEM: ATOMS id type x y z
3497 2 1.62 11.34 1.62
ITEM: TIMESTEP
828
ITEM: NUMBER OF ATOMS
1
ITEM: BOX BOUNDS pp pp pp
0 64.80
0 64.80
0 64.80
ITEM: ATOMS id type x y z
3497 2 -0.00 9.72 3.24
ITEM: TIMESTEP
829
ITEM: NUMBER OF ATOMS
1
ITEM: BOX BOUNDS pp pp pp
0 64.80
0 64.80
0 64.80
ITEM: ATOMS id type x y z
3497 2 1.62 11.34 1.62
ITEM: TIMESTEP
830
ITEM: NUMBER OF ATOMS
1
ITEM: BOX BOUNDS pp pp pp
0 64.80
0 64.80
0 64.80
ITEM: ATOMS id type x y z
3497 2 -0.00 9.72 3.24
ITEM: TIMESTEP
831
ITEM: NUMBER OF ATOMS
1
ITEM: BOX BOUNDS pp pp pp
0 64.80
0 64.80
0 64.80
ITEM: ATOMS id type x y z
3497 2 1.62 11.34 1.62
ITEM: TIMESTEP
832
ITEM: NUMBER OF ATOMS
1
ITEM: BOX BOUNDS pp pp pp
0 64.80
0 64.80
0 64.80
ITEM: ATOMS id type x y z
3497 2 -0.00 9.72 3.24
ITEM: TIMESTEP
833
ITEM: NUMBER OF ATOMS
1
ITEM: BOX BOUNDS pp pp pp
0 64.80
0 64.80
0 64.80
ITEM: ATOMS id type x y z
3497 2 1.62 11.34 1.62
ITEM: TIMESTEP
834
ITEM: NUMBER OF ATOMS
1
ITEM: BOX BOUNDS pp pp pp
0 64.80
0 64.80
0 64.80
ITEM: ATOMS id type x y z
3497 2 -0.00 12.96 -0.00
ITEM: TIMESTEP
835
ITEM: NUMBER OF ATOMS
1
ITEM: BOX BOUNDS pp pp pp
0 64.80
0 64.80
0 64.80
ITEM: ATOMS id type x y z
3497 2 -1.62 11.34 -1.62
ITEM: TIMESTEP
836
ITEM: NUMBER OF ATOMS
1
ITEM: BOX BOUNDS pp pp pp
0 64.80
0 64.80
0 64.80
ITEM: ATOMS id type x y z
3497 2 -0.00 12.96 -0.00
ITEM: TIMESTEP
837
ITEM: NUMBER OF ATOMS
1
ITEM: BOX BOUNDS pp pp pp
0 64.80
0 64.80
0 64.80
ITEM: ATOMS id type x y z
3497 2 1.62 11.34 1.62
ITEM: TIMESTEP
838
ITEM: NUMBER OF ATOMS
1
ITEM: BOX BOUNDS pp pp pp
0 64.80
0 64.80
0 64.80
ITEM: ATOMS id type x y z
3497 2 -0.00 12.96 -0.00
ITEM: TIMESTEP
839
ITEM: NUMBER OF ATOMS
1
ITEM: BOX BOUNDS pp pp pp
0 64.80
0 64.80
0 64.80
ITEM: ATOMS id type x y z
3497 2 -1.62 11.34 -1.62
ITEM: TIMESTEP
840
ITEM: NUMBER OF ATOMS
1
ITEM: BOX BOUNDS pp pp pp
0 64.80
0 64.80
0 64.80
ITEM: ATOMS id type x y z
3497 2 -0.00 12.96 -0.00
ITEM: TIMESTEP
841
ITEM: NUMBER OF ATOMS
1
ITEM: BOX BOUNDS pp pp pp
0 64.80
0 64.80
0 64.80
ITEM: ATOMS id type x y z
3497 2 1.62 11.34 1.62
ITEM: TIMESTEP
842
ITEM: NUMBER OF ATOMS
1
ITEM: BOX BOUNDS pp pp pp
0 64.80
0 64.80
0 64.80
ITEM: ATOMS id type x y z
3497 2 -0.00 9.72 3.24
ITEM: TIMESTEP
843
ITEM: NUMBER OF ATOMS
1
ITEM: BOX BOUNDS pp pp pp
0 64.80
0 64.80
0 64.80
ITEM: ATOMS id type x y z
3497 2 -1.62 8.10 1.62
ITEM: TIMESTEP
844
ITEM: NUMBER OF ATOMS
1
ITEM: BOX BOUNDS pp pp pp
0 64.80
0 64.80
0 64.80
ITEM: ATOMS id type x y z
3497 2 -0.00 9.72 3.24
ITEM: TIMESTEP
845
ITEM: NUMBER OF ATOMS
1
ITEM: BOX BOUNDS pp pp pp
0 64.80
0 64.80
0 64.80
ITEM: ATOMS id type x y z
3497 2 1.62 11.34 1.62
ITEM: TIMESTEP
846
ITEM: NUMBER OF ATOMS
1
ITEM: BOX BOUNDS pp pp pp
0 64.80
0 64.80
0 64.80
ITEM: ATOMS id type x y z
3497 2 -0.00 12.96 -0.00
ITEM: TIMESTEP
847
ITEM: NUMBER OF ATOMS
1
ITEM: BOX BOUNDS pp pp pp
0 64.80
0 64.80
0 64.80
ITEM: ATOMS id type x y z
3497 2 -1.62 11.34 -1.62
ITEM: TIMESTEP
848
ITEM: NUMBER OF ATOMS
1
ITEM: BOX BOUNDS pp pp pp
0 64.80
0 64.80
0 64.80
ITEM: ATOMS id type x y z
3497 2 -0.00 12.96 -0.00
ITEM: TIMESTEP
849
ITEM: NUMBER OF ATOMS
1
ITEM: BOX BOUNDS pp pp pp
0 64.80
0 64.80
0 64.80
ITEM: ATOMS id type x y z
3497 2 -1.62 11.34 -1.62
ITEM: TIMESTEP
850
ITEM: NUMBER OF ATOMS
1
ITEM: BOX BOUNDS pp pp pp
0 64.80
0 64.80
0 64.80
ITEM: ATOMS id type x y z
3497 2 -0.00 12.96 -0.00
ITEM: TIMESTEP
851
ITEM: NUMBER OF ATOMS
1
ITEM: BOX BOUNDS pp pp pp
0 64.80
0 64.80
0 64.80
ITEM: ATOMS id type x y z
3497 2 1.62 11.34 1.62
ITEM: TIMESTEP
852
ITEM: NUMBER OF ATOMS
1
ITEM: BOX BOUNDS pp pp pp
0 64.80
0 64.80
0 64.80
ITEM: ATOMS id type x y z
3497 2 -0.00 9.72 3.24
ITEM: TIMESTEP
853
ITEM: NUMBER OF ATOMS
1
ITEM: BOX BOUNDS pp pp pp
0 64.80
0 64.80
0 64.80
ITEM: ATOMS id type x y z
3497 2 1.62 11.34 1.62
ITEM: TIMESTEP
854
ITEM: NUMBER OF ATOMS
1
ITEM: BOX BOUNDS pp pp pp
0 64.80
0 64.80
0 64.80
ITEM: ATOMS id type x y z
3497 2 -0.00 9.72 3.24
ITEM: TIMESTEP
855
ITEM: NUMBER OF ATOMS
1
ITEM: BOX BOUNDS pp pp pp
0 64.80
0 64.80
0 64.80
ITEM: ATOMS id type x y z
3497 2 1.62 11.34 1.62
ITEM: TIMESTEP
856
ITEM: NUMBER OF ATOMS
1
ITEM: BOX BOUNDS pp pp pp
0 64.80
0 64.80
0 64.80
ITEM: ATOMS id type x y z
3497 2 -0.00 9.72 3.24
ITEM: TIMESTEP
857
ITEM: NUMBER OF ATOMS
1
ITEM: BOX BOUNDS pp pp pp
0 64.80
0 64.80
0 64.80
ITEM: ATOMS id type x y z
3497 2 1.62 11.34 1.62
ITEM: TIMESTEP
858
ITEM: NUMBER OF ATOMS
1
ITEM: BOX BOUNDS pp pp pp
0 64.80
0 64.80
0 64.80
ITEM: ATOMS id type x y z
3497 2 -0.00 12.96 -0.00
ITEM: TIMESTEP
859
ITEM: NUMBER OF ATOMS
1
ITEM: BOX BOUNDS pp pp pp
0 64.80
0 64.80
0 64.80
ITEM: ATOMS id type x y z
3497 2 1.62 11.34 1.62
ITEM: TIMESTEP
860
ITEM: NUMBER OF ATOMS
1
ITEM: BOX BOUNDS pp pp pp
0 64.80
0 64.80
0 64.80
ITEM: ATOMS id type x y z
3497 2 -0.00 12.96 -0.00
ITEM: TIMESTEP
861
ITEM: NUMBER OF ATOMS
1
ITEM: BOX BOUNDS pp pp pp
0 64.80
0 64.80
0 64.80
ITEM: ATOMS id type x y z
3497 2 1.62 11.34 1.62
ITEM: TIMESTEP
862
ITEM: NUMBER OF ATOMS
1
ITEM: BOX BOUNDS pp pp pp
0 64.80
0 64.80
0 64.80
ITEM: ATOMS id type x y z
3497 2 -0.00 12.96 -0.00
ITEM: TIMESTEP
863
ITEM: NUMBER OF ATOMS
1
ITEM: BOX BOUNDS pp pp pp
0 64.80
0 64.80
0 64.80
ITEM: ATOMS id type x y z
3497 2 1.62 11.34 1.62
ITEM: TIMESTEP
864
ITEM: NUMBER OF ATOMS
1
ITEM: BOX BOUNDS pp pp pp
0 64.80
0 64.80
0 64.80
ITEM: ATOMS id type x y z
3497 2 -0.00 12.96 -0.00
ITEM: TIMESTEP
865
ITEM: NUMBER OF ATOMS
1
ITEM: BOX BOUNDS pp pp pp
0 64.80
0 64.80
0 64.80
ITEM: ATOMS id type x y z
3497 2 1.62 11.34 1.62
ITEM: TIMESTEP
866
ITEM: NUMBER OF ATOMS
1
ITEM: BOX BOUNDS pp pp pp
0 64.80
0 64.80
0 64.80
ITEM: ATOMS id type x y z
3497 2 -0.00 12.96 -0.00
ITEM: TIMESTEP
867
ITEM: NUMBER OF ATOMS
1
ITEM: BOX BOUNDS pp pp pp
0 64.80
0 64.80
0 64.80
ITEM: ATOMS id type x y z
3497 2 1.62 11.34 1.62
ITEM: TIMESTEP
868
ITEM: NUMBER OF ATOMS
1
ITEM: BOX BOUNDS pp pp pp
0 64.80
0 64.80
0 64.80
ITEM: ATOMS id type x y z
3497 2 -0.00 12.96 -0.00
ITEM: TIMESTEP
869
ITEM: NUMBER OF ATOMS
1
ITEM: BOX BOUNDS pp pp pp
0 64.80
0 64.80
0 64.80
ITEM: ATOMS id type x y z
3497 2 -1.62 11.34 -1.62
ITEM: TIMESTEP
870
ITEM: NUMBER OF ATOMS
1
ITEM: BOX BOUNDS pp pp pp
0 64.80
0 64.80
0 64.80
ITEM: ATOMS id type x y z
3497 2 -0.00 12.96 -0.00
ITEM: TIMESTEP
871
ITEM: NUMBER OF ATOMS
1
ITEM: BOX BOUNDS pp pp pp
0 64.80
0 64.80
0 64.80
ITEM: ATOMS id type x y z
3497 2 -1.62 11.34 -1.62
ITEM: TIMESTEP
872
ITEM: NUMBER OF ATOMS
1
ITEM: BOX BOUNDS pp pp pp
0 64.80
0 64.80
0 64.80
ITEM: ATOMS id type x y z
3497 2 -0.00 12.96 -0.00
ITEM: TIMESTEP
873
ITEM: NUMBER OF ATOMS
1
ITEM: BOX BOUNDS pp pp pp
0 64.80
0 64.80
0 64.80
ITEM: ATOMS id type x y z
3497 2 -1.62 11.34 -1.62
ITEM: TIMESTEP
874
ITEM: NUMBER OF ATOMS
1
ITEM: BOX BOUNDS pp pp pp
0 64.80
0 64.80
0 64.80
ITEM: ATOMS id type x y z
3497 2 -0.00 12.96 -0.00
ITEM: TIMESTEP
875
ITEM: NUMBER OF ATOMS
1
ITEM: BOX BOUNDS pp pp pp
0 64.80
0 64.80
0 64.80
ITEM: ATOMS id type x y z
3497 2 1.62 11.34 1.62
ITEM: TIMESTEP
876
ITEM: NUMBER OF ATOMS
1
ITEM: BOX BOUNDS pp pp pp
0 64.80
0 64.80
0 64.80
ITEM: ATOMS id type x y z
3497 2 -0.00 12.96 -0.00
ITEM: TIMESTEP
877
ITEM: NUMBER OF ATOMS
1
ITEM: BOX BOUNDS pp pp pp
0 64.80
0 64.80
0 64.80
ITEM: ATOMS id type x y z
3497 2 -1.62 11.34 -1.62
ITEM: TIMESTEP
878
ITEM: NUMBER OF ATOMS
1
ITEM: BOX BOUNDS pp pp pp
0 64.80
0 64.80
0 64.80
ITEM: ATOMS id type x y z
3497 2 -0.00 12.96 -0.00
ITEM: TIMESTEP
879
ITEM: NUMBER OF ATOMS
1
ITEM: BOX BOUNDS pp pp pp
0 64.80
0 64.80
0 64.80
ITEM: ATOMS id type x y z
3497 2 1.62 11.34 1.62
ITEM: TIMESTEP
880
ITEM: NUMBER OF ATOMS
1
ITEM: BOX BOUNDS pp pp pp
0 64.80
0 64.80
0 64.80
ITEM: ATOMS id type x y z
3497 2 -0.00 12.96 -0.00
ITEM: TIMESTEP
881
ITEM: NUMBER OF ATOMS
1
ITEM: BOX BOUNDS pp pp pp
0 64.80
0 64.80
0 64.80
ITEM: ATOMS id type x y z
3497 2 -1.62 11.34 -1.62
ITEM: TIMESTEP
882
ITEM: NUMBER OF ATOMS
1
ITEM: BOX BOUNDS pp pp pp
0 64.80
0 64.80
0 64.80
ITEM: ATOMS id type x y z
3497 2 -0.00 12.96 -0.00
ITEM: TIMESTEP
883
ITEM: NUMBER OF ATOMS
1
ITEM: BOX BOUNDS pp pp pp
0 64.80
0 64.80
0 64.80
ITEM: ATOMS id type x y z
3497 2 1.62 11.34 1.62
ITEM: TIMESTEP
884
ITEM: NUMBER OF ATOMS
1
ITEM: BOX BOUNDS pp pp pp
0 64.80
0 64.80
0 64.80
ITEM: ATOMS id type x y z
3497 2 -0.00 9.72 3.24
ITEM: TIMESTEP
885
ITEM: NUMBER OF ATOMS
1
ITEM: BOX BOUNDS pp pp pp
0 64.80
0 64.80
0 64.80
ITEM: ATOMS id type x y z
3497 2 1.62 11.34 1.62
ITEM: TIMESTEP
886
ITEM: NUMBER OF ATOMS
1
ITEM: BOX BOUNDS pp pp pp
0 64.80
0 64.80
0 64.80
ITEM: ATOMS id type x y z
3497 2 -0.00 12.96 -0.00
ITEM: TIMESTEP
887
ITEM: NUMBER OF ATOMS
1
ITEM: BOX BOUNDS pp pp pp
0 64.80
0 64.80
0 64.80
ITEM: ATOMS id type x y z
3497 2 -1.62 11.34 -1.62
ITEM: TIMESTEP
888
ITEM: NUMBER OF ATOMS
1
ITEM: BOX BOUNDS pp pp pp
0 64.80
0 64.80
0 64.80
ITEM: ATOMS id type x y z
3497 2 -0.00 12.96 -0.00
ITEM: TIMESTEP
889
ITEM: NUMBER OF ATOMS
1
ITEM: BOX BOUNDS pp pp pp
0 64.80
0 64.80
0 64.80
ITEM: ATOMS id type x y z
3497 2 -1.62 11.34 -1.62
ITEM: TIMESTEP
890
ITEM: NUMBER OF ATOMS
1
ITEM: BOX BOUNDS pp pp pp
0 64.80
0 64.80
0 64.80
ITEM: ATOMS id type x y z
3497 2 -0.00 12.96 -0.00
ITEM: TIMESTEP
891
ITEM: NUMBER OF ATOMS
1
ITEM: BOX BOUNDS pp pp pp
0 64.80
0 64.80
0 64.80
ITEM: ATOMS id type x y z
3497 2 1.62 11.34 1.62
ITEM: TIMESTEP
892
ITEM: NUMBER OF ATOMS
1
ITEM: BOX BOUNDS pp pp pp
0 64.80
0 64.80
0 64.80
ITEM: ATOMS id type x y z
3497 2 -0.00 12.96 -0.00
ITEM: TIMESTEP
893
ITEM: NUMBER OF ATOMS
1
ITEM: BOX BOUNDS pp pp pp
0 64.80
0 64.80
0 64.80
ITEM: ATOMS id type x y z
3497 2 1.62 11.34 1.62
ITEM: TIMESTEP
894
ITEM: NUMBER OF ATOMS
1
ITEM: BOX BOUNDS pp pp pp
0 64.80
0 64.80
0 64.80
ITEM: ATOMS id type x y z
3497 2 -0.00 12.96 -0.00
ITEM: TIMESTEP
895
ITEM: NUMBER OF ATOMS
1
ITEM: BOX BOUNDS pp pp pp
0 64.80
0 64.80
0 64.80
ITEM: ATOMS id type x y z
3497 2 1.62 11.34 1.62
ITEM: TIMESTEP
896
ITEM: NUMBER OF ATOMS
1
ITEM: BOX BOUNDS pp pp pp
0 64.80
0 64.80
0 64.80
ITEM: ATOMS id type x y z
3497 2 -0.00 12.96 -0.00
ITEM: TIMESTEP
897
ITEM: NUMBER OF ATOMS
1
ITEM: BOX BOUNDS pp pp pp
0 64.80
0 64.80
0 64.80
ITEM: ATOMS id type x y z
3497 2 1.62 11.34 1.62
ITEM: TIMESTEP
898
ITEM: NUMBER OF ATOMS
1
ITEM: BOX BOUNDS pp pp pp
0 64.80
0 64.80
0 64.80
ITEM: ATOMS id type x y z
3497 2 -0.00 12.96 -0.00
ITEM: TIMESTEP
899
ITEM: NUMBER OF ATOMS
1
ITEM: BOX BOUNDS pp pp pp
0 64.80
0 64.80
0 64.80
ITEM: ATOMS id type x y z
3497 2 1.62 11.34 1.62
ITEM: TIMESTEP
900
ITEM: NUMBER OF ATOMS
1
ITEM: BOX BOUNDS pp pp pp
0 64.80
0 64.80
0 64.80
ITEM: ATOMS id type x y z
3497 2 -0.00 12.96 -0.00
ITEM: TIMESTEP
901
ITEM: NUMBER OF ATOMS
1
ITEM: BOX BOUNDS pp pp pp
0 64.80
0 64.80
0 64.80
ITEM: ATOMS id type x y z
3497 2 1.62 11.34 1.62
ITEM: TIMESTEP
902
ITEM: NUMBER OF ATOMS
1
ITEM: BOX BOUNDS pp pp pp
0 64.80
0 64.80
0 64.80
ITEM: ATOMS id type x y z
3497 2 -0.00 9.72 3.24
ITEM: TIMESTEP
903
ITEM: NUMBER OF ATOMS
1
ITEM: BOX BOUNDS pp pp pp
0 64.80
0 64.80
0 64.80
ITEM: ATOMS id type x y z
3497 2 -1.62 8.10 1.62
ITEM: TIMESTEP
904
ITEM: NUMBER OF ATOMS
1
ITEM: BOX BOUNDS pp pp pp
0 64.80
0 64.80
0 64.80
ITEM: ATOMS id type x y z
3497 2 -0.00 9.72 3.24
ITEM: TIMESTEP
905
ITEM: NUMBER OF ATOMS
1
ITEM: BOX BOUNDS pp pp pp
0 64.80
0 64.80
0 64.80
ITEM: ATOMS id type x y z
3497 2 1.62 11.34 1.62
ITEM: TIMESTEP
906
ITEM: NUMBER OF ATOMS
1
ITEM: BOX BOUNDS pp pp pp
0 64.80
0 64.80
0 64.80
ITEM: ATOMS id type x y z
3497 2 -0.00 12.96 -0.00
ITEM: TIMESTEP
907
ITEM: NUMBER OF ATOMS
1
ITEM: BOX BOUNDS pp pp pp
0 64.80
0 64.80
0 64.80
ITEM: ATOMS id type x y z
3497 2 -1.62 11.34 -1.62
ITEM: TIMESTEP
908
ITEM: NUMBER OF ATOMS
1
ITEM: BOX BOUNDS pp pp pp
0 64.80
0 64.80
0 64.80
ITEM: ATOMS id type x y z
3497 2 -0.00 12.96 -0.00
ITEM: TIMESTEP
909
ITEM: NUMBER OF ATOMS
1
ITEM: BOX BOUNDS pp pp pp
0 64.80
0 64.80
0 64.80
ITEM: ATOMS id type x y z
3497 2 -1.62 11.34 -1.62
ITEM: TIMESTEP
910
ITEM: NUMBER OF ATOMS
1
ITEM: BOX BOUNDS pp pp pp
0 64.80
0 64.80
0 64.80
ITEM: ATOMS id type x y z
3497 2 -0.00 12.96 -0.00
ITEM: TIMESTEP
911
ITEM: NUMBER OF ATOMS
1
ITEM: BOX BOUNDS pp pp pp
0 64.80
0 64.80
0 64.80
ITEM: ATOMS id type x y z
3497 2 1.62 11.34 1.62
ITEM: TIMESTEP
912
ITEM: NUMBER OF ATOMS
1
ITEM: BOX BOUNDS pp pp pp
0 64.80
0 64.80
0 64.80
ITEM: ATOMS id type x y z
3497 2 -0.00 12.96 -0.00
ITEM: TIMESTEP
913
ITEM: NUMBER OF ATOMS
1
ITEM: BOX BOUNDS pp pp pp
0 64.80
0 64.80
0 64.80
ITEM: ATOMS id type x y z
3497 2 -1.62 11.34 -1.62
ITEM: TIMESTEP
914
ITEM: NUMBER OF ATOMS
1
ITEM: BOX BOUNDS pp pp pp
0 64.80
0 64.80
0 64.80
ITEM: ATOMS id type x y z
3497 2 -0.00 12.96 -0.00
ITEM: TIMESTEP
915
ITEM: NUMBER OF ATOMS
1
ITEM: BOX BOUNDS pp pp pp
0 64.80
0 64.80
0 64.80
ITEM: ATOMS id type x y z
3497 2 1.62 11.34 1.62
ITEM: TIMESTEP
916
ITEM: NUMBER OF ATOMS
1
ITEM: BOX BOUNDS pp pp pp
0 64.80
0 64.80
0 64.80
ITEM: ATOMS id type x y z
3497 2 -0.00 9.72 3.24
ITEM: TIMESTEP
917
ITEM: NUMBER OF ATOMS
1
ITEM: BOX BOUNDS pp pp pp
0 64.80
0 64.80
0 64.80
ITEM: ATOMS id type x y z
3497 2 1.62 11.34 1.62
ITEM: TIMESTEP
918
ITEM: NUMBER OF ATOMS
1
ITEM: BOX BOUNDS pp pp pp
0 64.80
0 64.80
0 64.80
ITEM: ATOMS id type x y z
3497 2 -0.00 12.96 -0.00
ITEM: TIMESTEP
919
ITEM: NUMBER OF ATOMS
1
ITEM: BOX BOUNDS pp pp pp
0 64.80
0 64.80
0 64.80
ITEM: ATOMS id type x y z
3497 2 1.62 11.34 1.62
ITEM: TIMESTEP
920
ITEM: NUMBER OF ATOMS
1
ITEM: BOX BOUNDS pp pp pp
0 64.80
0 64.80
0 64.80
ITEM: ATOMS id type x y z
3497 2 -0.00 12.96 -0.00
ITEM: TIMESTEP
921
ITEM: NUMBER OF ATOMS
1
ITEM: BOX BOUNDS pp pp pp
0 64.80
0 64.80
0 64.80
ITEM: ATOMS id type x y z
3497 2 1.62 11.34 1.62
ITEM: TIMESTEP
922
ITEM: NUMBER OF ATOMS
1
ITEM: BOX BOUNDS pp pp pp
0 64.80
0 64.80
0 64.80
ITEM: ATOMS id type x y z
3497 2 -0.00 9.72 3.24
ITEM: TIMESTEP
923
ITEM: NUMBER OF ATOMS
1
ITEM: BOX BOUNDS pp pp pp
0 64.80
0 64.80
0 64.80
ITEM: ATOMS id type x y z
3497 2 1.62 11.34 1.62
ITEM: TIMESTEP
924
ITEM: NUMBER OF ATOMS
1
ITEM: BOX BOUNDS pp pp pp
0 64.80
0 64.80
0 64.80
ITEM: ATOMS id type x y z
3497 2 -0.00 12.96 -0.00
ITEM: TIMESTEP
925
ITEM: NUMBER OF ATOMS
1
ITEM: BOX BOUNDS pp pp pp
0 64.80
0 64.80
0 64.80
ITEM: ATOMS id type x y z
3497 2 1.62 11.34 1.62
ITEM: TIMESTEP
926
ITEM: NUMBER OF ATOMS
1
ITEM: BOX BOUNDS pp pp pp
0 64.80
0 64.80
0 64.80
ITEM: ATOMS id type x y z
3497 2 -0.00 9.72 3.24
ITEM: TIMESTEP
927
ITEM: NUMBER OF ATOMS
1
ITEM: BOX BOUNDS pp pp pp
0 64.80
0 64.80
0 64.80
ITEM: ATOMS id type x y z
3497 2 1.62 11.34 1.62
ITEM: TIMESTEP
928
ITEM: NUMBER OF ATOMS
1
ITEM: BOX BOUNDS pp pp pp
0 64.80
0 64.80
0 64.80
ITEM: ATOMS id type x y z
3497 2 -0.00 12.96 -0.00
ITEM: TIMESTEP
929
ITEM: NUMBER OF ATOMS
1
ITEM: BOX BOUNDS pp pp pp
0 64.80
0 64.80
0 64.80
ITEM: ATOMS id type x y z
3497 2 1.62 11.34 1.62
ITEM: TIMESTEP
930
ITEM: NUMBER OF ATOMS
1
ITEM: BOX BOUNDS pp pp pp
0 64.80
0 64.80
0 64.80
ITEM: ATOMS id type x y z
3497 2 -0.00 12.96 -0.00
ITEM: TIMESTEP
931
ITEM: NUMBER OF ATOMS
1
ITEM: BOX BOUNDS pp pp pp
0 64.80
0 64.80
0 64.80
ITEM: ATOMS id type x y z
3497 2 1.62 11.34 1.62
ITEM: TIMESTEP
932
ITEM: NUMBER OF ATOMS
1
ITEM: BOX BOUNDS pp pp pp
0 64.80
0 64.80
0 64.80
ITEM: ATOMS id type x y z
3497 2 -0.00 12.96 -0.00
ITEM: TIMESTEP
933
ITEM: NUMBER OF ATOMS
1
ITEM: BOX BOUNDS pp pp pp
0 64.80
0 64.80
0 64.80
ITEM: ATOMS id type x y z
3497 2 1.62 11.34 1.62
ITEM: TIMESTEP
934
ITEM: NUMBER OF ATOMS
1
ITEM: BOX BOUNDS pp pp pp
0 64.80
0 64.80
0 64.80
ITEM: ATOMS id type x y z
3497 2 -0.00 12.96 -0.00
ITEM: TIMESTEP
935
ITEM: NUMBER OF ATOMS
1
ITEM: BOX BOUNDS pp pp pp
0 64.80
0 64.80
0 64.80
ITEM: ATOMS id type x y z
3497 2 1.62 11.34 1.62
ITEM: TIMESTEP
936
ITEM: NUMBER OF ATOMS
1
ITEM: BOX BOUNDS pp pp pp
0 64.80
0 64.80
0 64.80
ITEM: ATOMS id type x y z
3497 2 -0.00 12.96 -0.00
ITEM: TIMESTEP
937
ITEM: NUMBER OF ATOMS
1
ITEM: BOX BOUNDS pp pp pp
0 64.80
0 64.80
0 64.80
ITEM: ATOMS id type x y z
3497 2 1.62 11.34 1.62
ITEM: TIMESTEP
938
ITEM: NUMBER OF ATOMS
1
ITEM: BOX BOUNDS pp pp pp
0 64.80
0 64.80
0 64.80
ITEM: ATOMS id type x y z
3497 2 -0.00 9.72 3.24
ITEM: TIMESTEP
939
ITEM: NUMBER OF ATOMS
1
ITEM: BOX BOUNDS pp pp pp
0 64.80
0 64.80
0 64.80
ITEM: ATOMS id type x y z
3497 2 1.62 11.34 1.62
ITEM: TIMESTEP
940
ITEM: NUMBER OF ATOMS
1
ITEM: BOX BOUNDS pp pp pp
0 64.80
0 64.80
0 64.80
ITEM: ATOMS id type x y z
3497 2 -0.00 12.96 -0.00
ITEM: TIMESTEP
941
ITEM: NUMBER OF ATOMS
1
ITEM: BOX BOUNDS pp pp pp
0 64.80
0 64.80
0 64.80
ITEM: ATOMS id type x y z
3497 2 1.62 11.34 1.62
ITEM: TIMESTEP
942
ITEM: NUMBER OF ATOMS
1
ITEM: BOX BOUNDS pp pp pp
0 64.80
0 64.80
0 64.80
ITEM: ATOMS id type x y z
3497 2 -0.00 12.96 -0.00
ITEM: TIMESTEP
943
ITEM: NUMBER OF ATOMS
1
ITEM: BOX BOUNDS pp pp pp
0 64.80
0 64.80
0 64.80
ITEM: ATOMS id type x y z
3497 2 1.62 11.34 1.62
ITEM: TIMESTEP
944
ITEM: NUMBER OF ATOMS
1
ITEM: BOX BOUNDS pp pp pp
0 64.80
0 64.80
0 64.80
ITEM: ATOMS id type x y z
3497 2 -0.00 12.96 -0.00
ITEM: TIMESTEP
945
ITEM: NUMBER OF ATOMS
1
ITEM: BOX BOUNDS pp pp pp
0 64.80
0 64.80
0 64.80
ITEM: ATOMS id type x y z
3497 2 -1.62 11.34 -1.62
ITEM: TIMESTEP
946
ITEM: NUMBER OF ATOMS
1
ITEM: BOX BOUNDS pp pp pp
0 64.80
0 64.80
0 64.80
ITEM: ATOMS id type x y z
3497 2 -0.00 12.96 -0.00
ITEM: TIMESTEP
947
ITEM: NUMBER OF ATOMS
1
ITEM: BOX BOUNDS pp pp pp
0 64.80
0 64.80
0 64.80
ITEM: ATOMS id type x y z
3497 2 1.62 11.34 1.62
ITEM: TIMESTEP
948
ITEM: NUMBER OF ATOMS
1
ITEM: BOX BOUNDS pp pp pp
0 64.80
0 64.80
0 64.80
ITEM: ATOMS id type x y z
3497 2 -0.00 12.96 -0.00
ITEM: TIMESTEP
949
ITEM: NUMBER OF ATOMS
1
ITEM: BOX BOUNDS pp pp pp
0 64.80
0 64.80
0 64.80
ITEM: ATOMS id type x y z
3497 2 1.62 11.34 1.62
ITEM: TIMESTEP
950
ITEM: NUMBER OF ATOMS
1
ITEM: BOX BOUNDS pp pp pp
0 64.80
0 64.80
0 64.80
ITEM: ATOMS id type x y z
3497 2 -0.00 12.96 -0.00
ITEM: TIMESTEP
951
ITEM: NUMBER OF ATOMS
1
ITEM: BOX BOUNDS pp pp pp
0 64.80
0 64.80
0 64.80
ITEM: ATOMS id type x y z
3497 2 1.62 14.58 1.62
ITEM: TIMESTEP
952
ITEM: NUMBER OF ATOMS
1
ITEM: BOX BOUNDS pp pp pp
0 64.80
0 64.80
0 64.80
ITEM: ATOMS id type x y z
3497 2 -0.00 16.20 -0.00
ITEM: TIMESTEP
953
ITEM: NUMBER OF ATOMS
1
ITEM: BOX BOUNDS pp pp pp
0 64.80
0 64.80
0 64.80
ITEM: ATOMS id type x y z
3497 2 1.62 14.58 -1.62
ITEM: TIMESTEP
954
ITEM: NUMBER OF ATOMS
1
ITEM: BOX BOUNDS pp pp pp
0 64.80
0 64.80
0 64.80
ITEM: ATOMS id type x y z
3497 2 3.24 16.20 -3.24
ITEM: TIMESTEP
955
ITEM: NUMBER OF ATOMS
1
ITEM: BOX BOUNDS pp pp pp
0 64.80
0 64.80
0 64.80
ITEM: ATOMS id type x y z
3497 2 1.62 17.82 -1.62
ITEM: TIMESTEP
956
ITEM: NUMBER OF ATOMS
1
ITEM: BOX BOUNDS pp pp pp
0 64.80
0 64.80
0 64.80
ITEM: ATOMS id type x y z
3497 2 -0.00 16.20 -0.00
ITEM: TIMESTEP
957
ITEM: NUMBER OF ATOMS
1
ITEM: BOX BOUNDS pp pp pp
0 64.80
0 64.80
0 64.80
ITEM: ATOMS id type x y z
3497 2 1.62 17.82 -1.62
ITEM: TIMESTEP
958
ITEM: NUMBER OF ATOMS
1
ITEM: BOX BOUNDS pp pp pp
0 64.80
0 64.80
0 64.80
ITEM: ATOMS id type x y z
3497 2 -0.00 16.20 -0.00
ITEM: TIMESTEP
959
ITEM: NUMBER OF ATOMS
1
ITEM: BOX BOUNDS pp pp pp
0 64.80
0 64.80
0 64.80
ITEM: ATOMS id type x y z
3497 2 1.62 17.82 -1.62
ITEM: TIMESTEP
960
ITEM: NUMBER OF ATOMS
1
ITEM: BOX BOUNDS pp pp pp
0 64.80
0 64.80
0 64.80
ITEM: ATOMS id type x y z
3497 2 -0.00 16.20 -0.00
ITEM: TIMESTEP
961
ITEM: NUMBER OF ATOMS
1
ITEM: BOX BOUNDS pp pp pp
0 64.80
0 64.80
0 64.80
ITEM: ATOMS id type x y z
3497 2 1.62 17.82 -1.62
ITEM: TIMESTEP
962
ITEM: NUMBER OF ATOMS
1
ITEM: BOX BOUNDS pp pp pp
0 64.80
0 64.80
0 64.80
ITEM: ATOMS id type x y z
3497 2 -0.00 19.44 -0.00
ITEM: TIMESTEP
963
ITEM: NUMBER OF ATOMS
1
ITEM: BOX BOUNDS pp pp pp
0 64.80
0 64.80
0 64.80
ITEM: ATOMS id type x y z
3497 2 -1.62 21.06 -1.62
ITEM: TIMESTEP
964
ITEM: NUMBER OF ATOMS
1
ITEM: BOX BOUNDS pp pp pp
0 64.80
0 64.80
0 64.80
ITEM: ATOMS id type x y z
3497 2 -3.24 22.68 -0.00
ITEM: TIMESTEP
965
ITEM: NUMBER OF ATOMS
1
ITEM: BOX BOUNDS pp pp pp
0 64.80
0 64.80
0 64.80
ITEM: ATOMS id type x y z
3497 2 -4.86 21.06 -1.62
ITEM: TIMESTEP
966
ITEM: NUMBER OF ATOMS
1
ITEM: BOX BOUNDS pp pp pp
0 64.80
0 64.80
0 64.80
ITEM: ATOMS id type x y z
3497 2 -3.24 22.68 -0.00
ITEM: TIMESTEP
967
ITEM: NUMBER OF ATOMS
1
ITEM: BOX BOUNDS pp pp pp
0 64.80
0 64.80
0 64.80
ITEM: ATOMS id type x y z
3497 2 -4.86 21.06 -1.62
ITEM: TIMESTEP
968
ITEM: NUMBER OF ATOMS
1
ITEM: BOX BOUNDS pp pp pp
0 64.80
0 64.80
0 64.80
ITEM: ATOMS id type x y z
3497 2 -3.24 22.68 -0.00
ITEM: TIMESTEP
969
ITEM: NUMBER OF ATOMS
1
ITEM: BOX BOUNDS pp pp pp
0 64.80
0 64.80
0 64.80
ITEM: ATOMS id type x y z
3497 2 -4.86 24.30 1.62
ITEM: TIMESTEP
970
ITEM: NUMBER OF ATOMS
1
ITEM: BOX BOUNDS pp pp pp
0 64.80
0 64.80
0 64.80
ITEM: ATOMS id type x y z
3497 2 -3.24 22.68 -0.00
ITEM: TIMESTEP
971
ITEM: NUMBER OF ATOMS
1
ITEM: BOX BOUNDS pp pp pp
0 64.80
0 64.80
0 64.80
ITEM: ATOMS id type x y z
3497 2 -4.86 21.06 -1.62
ITEM: TIMESTEP
972
ITEM: NUMBER OF ATOMS
1
ITEM: BOX BOUNDS pp pp pp
0 64.80
0 64.80
0 64.80
ITEM: ATOMS id type x y z
3497 2 -3.24 22.68 -0.00
ITEM: TIMESTEP
973
ITEM: NUMBER OF ATOMS
1
ITEM: BOX BOUNDS pp pp pp
0 64.80
0 64.80
0 64.80
ITEM: ATOMS id type x y z
3497 2 -4.86 21.06 -1.62
ITEM: TIMESTEP
974
ITEM: NUMBER OF ATOMS
1
ITEM: BOX BOUNDS pp pp pp
0 64.80
0 64.80
0 64.80
ITEM: ATOMS id type x y z
3497 2 -6.48 22.68 -3.24
ITEM: TIMESTEP
975
ITEM: NUMBER OF ATOMS
1
ITEM: BOX BOUNDS pp pp pp
0 64.80
0 64.80
0 64.80
ITEM: ATOMS id type x y z
3497 2 -8.10 24.30 -1.62
ITEM: TIMESTEP
976
ITEM: NUMBER OF ATOMS
1
ITEM: BOX BOUNDS pp pp pp
0 64.80
0 64.80
0 64.80
ITEM: ATOMS id type x y z
3497 2 -9.72 22.68 -3.24
ITEM: TIMESTEP
977
ITEM: NUMBER OF ATOMS
1
ITEM: BOX BOUNDS pp pp pp
0 64.80
0 64.80
0 64.80
ITEM: ATOMS id type x y z
3497 2 -8.10 21.06 -4.86
ITEM: TIMESTEP
978
ITEM: NUMBER OF ATOMS
1
ITEM: BOX BOUNDS pp pp pp
0 64.80
0 64.80
0 64.80
ITEM: ATOMS id type x y z
3497 2 -9.72 22.68 -3.24
ITEM: TIMESTEP
979
ITEM: NUMBER OF ATOMS
1
ITEM: BOX BOUNDS pp pp pp
0 64.80
0 64.80
0 64.80
ITEM: ATOMS id type x y z
3497 2 -8.10 21.06 -4.86
ITEM: TIMESTEP
980
ITEM: NUMBER OF ATOMS
1
ITEM: BOX BOUNDS pp pp pp
0 64.80
0 64.80
0 64.80
ITEM: ATOMS id type x y z
3497 2 -9.72 22.68 -3.24
ITEM: TIMESTEP
981
ITEM: NUMBER OF ATOMS
1
ITEM: BOX BOUNDS pp pp pp
0 64.80
0 64.80
0 64.80
ITEM: ATOMS id type x y z
3497 2 -8.10 21.06 -4.86
ITEM: TIMESTEP
982
ITEM: NUMBER OF ATOMS
1
ITEM: BOX BOUNDS pp pp pp
0 64.80
0 64.80
0 64.80
ITEM: ATOMS id type x y z
3497 2 -9.72 22.68 -3.24
ITEM: TIMESTEP
983
ITEM: NUMBER OF ATOMS
1
ITEM: BOX BOUNDS pp pp pp
0 64.80
0 64.80
0 64.80
ITEM: ATOMS id type x y z
3497 2 -8.10 21.06 -4.86
ITEM: TIMESTEP
984
ITEM: NUMBER OF ATOMS
1
ITEM: BOX BOUNDS pp pp pp
0 64.80
0 64.80
0 64.80
ITEM: ATOMS id type x y z
3497 2 -6.48 22.68 -6.48
ITEM: TIMESTEP
985
ITEM: NUMBER OF ATOMS
1
ITEM: BOX BOUNDS pp pp pp
0 64.80
0 64.80
0 64.80
ITEM: ATOMS id type x y z
3497 2 -8.10 21.06 -8.10
ITEM: TIMESTEP
986
ITEM: NUMBER OF ATOMS
1
ITEM: BOX BOUNDS pp pp pp
0 64.80
0 64.80
0 64.80
ITEM: ATOMS id type x y z
3497 2 -9.72 19.44 -6.48
ITEM: TIMESTEP
987
ITEM: NUMBER OF ATOMS
1
ITEM: BOX BOUNDS pp pp pp
0 64.80
0 64.80
0 64.80
ITEM: ATOMS id type x y z
3497 2 -11.34 17.82 -8.10
ITEM: TIMESTEP
988
ITEM: NUMBER OF ATOMS
1
ITEM: BOX BOUNDS pp pp pp
0 64.80
0 64.80
0 64.80
ITEM: ATOMS id type x y z
3497 2 -9.72 19.44 -6.48
ITEM: TIMESTEP
989
ITEM: NUMBER OF ATOMS
1
ITEM: BOX BOUNDS pp pp pp
0 64.80
0 64.80
0 64.80
ITEM: ATOMS id type x y z
3497 2 -11.34 17.82 -8.10
ITEM: TIMESTEP
990
ITEM: NUMBER OF ATOMS
1
ITEM: BOX BOUNDS pp pp pp
0 64.80
0 64.80
0 64.80
ITEM: ATOMS id type x y z
3497 2 -9.72 19.44 -6.48
ITEM: TIMESTEP
991
ITEM: NUMBER OF ATOMS
1
ITEM: BOX BOUNDS pp pp pp
0 64.80
0 64.80
0 64.80
ITEM: ATOMS id type x y z
3497 2 -11.34 21.06 -4.86
ITEM: TIMESTEP
992
ITEM: NUMBER OF ATOMS
1
ITEM: BOX BOUNDS pp pp pp
0 64.80
0 64.80
0 64.80
ITEM: ATOMS id type x y z
3497 2 -9.72 22.68 -3.24
ITEM: TIMESTEP
993
ITEM: NUMBER OF ATOMS
1
ITEM: BOX BOUNDS pp pp pp
0 64.80
0 64.80
0 64.80
ITEM: ATOMS id type x y z
3497 2 -8.10 24.30 -1.62
ITEM: TIMESTEP
994
ITEM: NUMBER OF ATOMS
1
ITEM: BOX BOUNDS pp pp pp
0 64.80
0 64.80
0 64.80
ITEM: ATOMS id type x y z
3497 2 -9.72 22.68 -3.24
ITEM: TIMESTEP
995
ITEM: NUMBER OF ATOMS
1
ITEM: BOX BOUNDS pp pp pp
0 64.80
0 64.80
0 64.80
ITEM: ATOMS id type x y z
3497 2 -8.10 24.30 -1.62
ITEM: TIMESTEP
996
ITEM: NUMBER OF ATOMS
1
ITEM: BOX BOUNDS pp pp pp
0 64.80
0 64.80
0 64.80
ITEM: ATOMS id type x y z
3497 2 -6.48 25.92 -3.24
ITEM: TIMESTEP
997
ITEM: NUMBER OF ATOMS
1
ITEM: BOX BOUNDS pp pp pp
0 64.80
0 64.80
0 64.80
ITEM: ATOMS id type x y z
3497 2 -8.10 27.54 -1.62
ITEM: TIMESTEP
998
ITEM: NUMBER OF ATOMS
1
ITEM: BOX BOUNDS pp pp pp
0 64.80
0 64.80
0 64.80
ITEM: ATOMS id type x y z
3497 2 -6.48 29.16 -0.00
ITEM: TIMESTEP
999
ITEM: NUMBER OF ATOMS
1
ITEM: BOX BOUNDS pp pp pp
0 64.80
0 64.80
0 64.80
ITEM: ATOMS id type x y z
3497 2 -8.10 27.54 1.62
ITEM: TIMESTEP
1000
ITEM: NUMBER OF ATOMS
1
ITEM: BOX BOUNDS pp pp pp
0 64.80
0 64.80
0 64.80
ITEM: ATOMS id type x y z
3497 2 -6.48 29.16 3.24
